 &bands
       prefix='AGNR_10_Defect_J',
       outdir='/home/zfwang/scratch/GNRDATASET/AGNR/AGNR_10_Defect_J',
       filband='bands_AGNR_10_Defect_J.dat',
       lsym=.true.,
 /
