 &control
    calculation='nscf'
    pseudo_dir = '/home/zfwang/hp_home/MySoftware/qe-6.3/pseudo',
    outdir='/home/zfwang/scratch/GNRDATASET/AGNR/AGNR_10_Defect_H'
    prefix='AGNR_10_Defect_H'
    wf_collect = .true.
 /
 &system
    ibrav = 0,
    celldm(1) = 1.8897261249935,
    nat = 96,
    ntyp = 2,
    ecutwfc=40.0,
    ecutrho=480.d0,
    nbnd=500,nosym=.true.,
    occupations='smearing', smearing='marzari-vanderbilt', degauss=0.01
 /
 &electrons
    conv_thr = 1.0D-5
    mixing_beta = 0.7
 /
ATOMIC_SPECIES
C  12.0107  C.pbe-n-rrkjus_psl.0.1.UPF
H  1.00794  H.pbe-rrkjus_psl.0.1.UPF
ATOMIC_POSITIONS (Angstrom)
C	5.0000000000	5.0000001606	0.7100006306	
C	5.0000000000	5.0000001606	4.9700061917	
C	5.0000000000	5.0000001606	9.2300059128	
C	5.0000000000	5.0000001606	13.4900061417	
C	5.0000000000	6.2297489016	1.4199994838	
C	5.0000000000	6.2297489016	5.6799943805	
C	5.0000000000	6.2297489016	9.9399951172	
C	5.0000000000	6.2297489016	14.1999953461	
C	5.0000000000	5.0000001606	3.5499945199	
C	5.0000000000	5.0000001606	7.8099944949	
C	5.0000000000	5.0000001606	12.0699952316	
C	5.0000000000	5.0000001606	16.3299954605	
C	5.0000000000	7.4595183624	0.7100006306	
C	5.0000000000	7.4595183624	4.9700061917	
C	5.0000000000	7.4595183624	9.2300059128	
C	5.0000000000	7.4595183624	13.4900061417	
C	5.0000000000	8.6892671034	1.4199994838	
C	5.0000000000	8.6892671034	5.6799943805	
C	5.0000000000	8.6892671034	9.9399951172	
C	5.0000000000	8.6892671034	14.1999953461	
C	5.0000000000	6.2297489016	2.8400058234	
C	5.0000000000	6.2297489016	7.1000063062	
C	5.0000000000	6.2297489016	11.3600060272	
C	5.0000000000	6.2297489016	15.6200062561	
C	5.0000000000	7.4595183624	3.5499945199	
C	5.0000000000	7.4595183624	7.8099944949	
C	5.0000000000	7.4595183624	12.0699952316	
C	5.0000000000	7.4595183624	16.3299954605	
C	5.0000000000	9.9190152166	0.7100006306	
C	5.0000000000	9.9190152166	4.9700061917	
C	5.0000000000	9.9190152166	9.2300059128	
C	5.0000000000	9.9190152166	13.4900061417	
C	5.0000000000	11.1487853052	1.4199994838	
C	5.0000000000	11.1487853052	5.6799943805	
C	5.0000000000	11.1487853052	9.9399951172	
C	5.0000000000	11.1487853052	14.1999953461	
C	5.0000000000	8.6892671034	2.8400058234	
C	5.0000000000	8.6892671034	7.1000063062	
C	5.0000000000	8.6892671034	11.3600060272	
C	5.0000000000	8.6892671034	15.6200062561	
C	5.0000000000	9.9190152166	3.5499945199	
C	5.0000000000	9.9190152166	7.8099944949	
C	5.0000000000	9.9190152166	12.0699952316	
C	5.0000000000	9.9190152166	16.3299954605	
C	5.0000000000	12.3785340463	0.7100006306	
C	5.0000000000	12.3785340463	4.9700061917	
C	5.0000000000	12.3785340463	9.2300059128	
C	5.0000000000	12.3785340463	13.4900061417	
C	5.0000000000	13.6082827873	1.4199994838	
C	5.0000000000	13.6082827873	5.6799943805	
C	5.0000000000	13.6082827873	9.9399951172	
C	5.0000000000	13.6082827873	14.1999953461	
C	5.0000000000	11.1487853052	2.8400058234	
C	5.0000000000	11.1487853052	7.1000063062	
C	5.0000000000	11.1487853052	11.3600060272	
C	5.0000000000	11.1487853052	15.6200062561	
C	5.0000000000	12.3785340463	3.5499945199	
C	5.0000000000	12.3785340463	7.8099944949	
C	5.0000000000	12.3785340463	12.0699952316	
C	5.0000000000	12.3785340463	16.3299954605	
C	5.0000000000	14.8380516202	0.7100006306	
C	5.0000000000	14.8380516202	4.9700061917	
C	5.0000000000	14.8380516202	13.4900061417	
C	5.0000000000	16.0678003613	1.4199994838	
C	5.0000000000	16.0678003613	5.6799943805	
C	5.0000000000	16.0678003613	14.1999953461	
C	5.0000000000	13.6082827873	2.8400058234	
C	5.0000000000	13.6082827873	7.1000063062	
C	5.0000000000	13.6082827873	11.3600060272	
C	5.0000000000	13.6082827873	15.6200062561	
C	5.0000000000	14.8380516202	3.5499945199	
C	5.0000000000	14.8380516202	7.8099944949	
C	5.0000000000	14.8380516202	12.0699952316	
C	5.0000000000	14.8380516202	16.3299954605	
C	5.0000000000	16.0678003613	2.8400058234	
C	5.0000000000	16.0678003613	11.3600060272	
C	5.0000000000	16.0678003613	15.6200062561	
H	5.0000000000	4.0560362152	1.2549995375	
H	5.0000000000	4.0560362152	5.5149963386	
H	5.0000000000	4.0560362152	9.7749965674	
H	5.0000000000	4.0560362152	14.0349967963	
H	5.0000000000	4.0560362152	3.0050041192	
H	5.0000000000	4.0560362152	7.2650043481	
H	5.0000000000	4.0560362152	11.5250045770	
H	5.0000000000	4.0560362152	15.7850048058	
H	5.0000000000	17.0117643067	0.8750006404	
H	5.0000000000	17.0117643067	5.1350042336	
H	5.0000000000	17.0117643067	13.6550046914	
H	5.0000000000	17.0117643067	3.3849962241	
H	5.0000000000	17.0117643067	11.9049966819	
H	5.0000000000	17.0117643067	16.1649969108	
H	5.0000000000	14.5522668246	9.3950044625	
H	5.0000000000	16.0678003613	6.7699924482	
H	5.0000000000	15.7820155656	7.2650043481	
H	5.0000000000	14.8380516202	8.8999925627	
H	5.0000000000	16.0678003613	10.2700084673	
K_POINTS (automatic)
1 1 50 0 0 0
CELL_PARAMETERS cubic
10.000000   0.0000000   0.000000
 0.000000  21.0678000   0.000000
 0.000000   0.0000000   17.040000
