 &control
    calculation='nscf'
    pseudo_dir = '/home/zfwang/hp_home/MySoftware/qe-6.3/pseudo',
    outdir='/home/zfwang/scratch/GNRDATASET/AGNR/AGNR_10_Defect_G'
    prefix='AGNR_10_Defect_G'
    wf_collect = .true.
 /
 &system
    ibrav = 0,
    celldm(1) = 1.8897261249935,
    nat = 94,
    ntyp = 2,
    ecutwfc=40.0,
    ecutrho=480.d0,
    nbnd=500,nosym=.true.,
    occupations='smearing', smearing='marzari-vanderbilt', degauss=0.01
 /
 &electrons
    conv_thr = 1.0D-5
    mixing_beta = 0.7
 /
ATOMIC_SPECIES
C  12.0107  C.pbe-n-rrkjus_psl.0.1.UPF
H  1.00794  H.pbe-rrkjus_psl.0.1.UPF
ATOMIC_POSITIONS (Angstrom)
C	5.0000000000	5.0000001606	2.8400058234	
C	5.0000000000	5.0000001606	7.1000063062	
C	5.0000000000	5.0000001606	11.3600060272	
C	5.0000000000	5.0000001606	15.6200062561	
C	5.0000000000	6.2297489016	3.5499945199	
C	5.0000000000	6.2297489016	7.8099944949	
C	5.0000000000	6.2297489016	12.0699952316	
C	5.0000000000	6.2297489016	16.3299954605	
C	5.0000000000	5.0000001606	1.4199994838	
C	5.0000000000	5.0000001606	5.6799943805	
C	5.0000000000	5.0000001606	9.9399951172	
C	5.0000000000	5.0000001606	14.1999953461	
C	5.0000000000	7.4595183624	2.8400058234	
C	5.0000000000	7.4595183624	7.1000063062	
C	5.0000000000	7.4595183624	11.3600060272	
C	5.0000000000	7.4595183624	15.6200062561	
C	5.0000000000	8.6892671034	3.5499945199	
C	5.0000000000	8.6892671034	7.8099944949	
C	5.0000000000	8.6892671034	12.0699952316	
C	5.0000000000	8.6892671034	16.3299954605	
C	5.0000000000	6.2297489016	0.7100006306	
C	5.0000000000	6.2297489016	4.9700061917	
C	5.0000000000	6.2297489016	9.2300059128	
C	5.0000000000	6.2297489016	13.4900061417	
C	5.0000000000	7.4595183624	1.4199994838	
C	5.0000000000	7.4595183624	5.6799943805	
C	5.0000000000	7.4595183624	9.9399951172	
C	5.0000000000	7.4595183624	14.1999953461	
C	5.0000000000	9.9190152166	2.8400058234	
C	5.0000000000	9.9190152166	7.1000063062	
C	5.0000000000	9.9190152166	11.3600060272	
C	5.0000000000	9.9190152166	15.6200062561	
C	5.0000000000	11.1487853052	3.5499945199	
C	5.0000000000	11.1487853052	7.8099944949	
C	5.0000000000	11.1487853052	12.0699952316	
C	5.0000000000	11.1487853052	16.3299954605	
C	5.0000000000	8.6892671034	0.7100006306	
C	5.0000000000	8.6892671034	4.9700061917	
C	5.0000000000	8.6892671034	9.2300059128	
C	5.0000000000	8.6892671034	13.4900061417	
C	5.0000000000	9.9190152166	1.4199994838	
C	5.0000000000	9.9190152166	5.6799943805	
C	5.0000000000	9.9190152166	9.9399951172	
C	5.0000000000	9.9190152166	14.1999953461	
C	5.0000000000	12.3785340463	2.8400058234	
C	5.0000000000	12.3785340463	7.1000063062	
C	5.0000000000	12.3785340463	11.3600060272	
C	5.0000000000	12.3785340463	15.6200062561	
C	5.0000000000	13.6082827873	3.5499945199	
C	5.0000000000	13.6082827873	7.8099944949	
C	5.0000000000	13.6082827873	12.0699952316	
C	5.0000000000	13.6082827873	16.3299954605	
C	5.0000000000	11.1487853052	0.7100006306	
C	5.0000000000	11.1487853052	4.9700061917	
C	5.0000000000	11.1487853052	9.2300059128	
C	5.0000000000	11.1487853052	13.4900061417	
C	5.0000000000	12.3785340463	1.4199994838	
C	5.0000000000	12.3785340463	5.6799943805	
C	5.0000000000	12.3785340463	9.9399951172	
C	5.0000000000	12.3785340463	14.1999953461	
C	5.0000000000	14.8380516202	2.8400058234	
C	5.0000000000	14.8380516202	7.1000063062	
C	5.0000000000	14.8380516202	11.3600060272	
C	5.0000000000	14.8380516202	15.6200062561	
C	5.0000000000	16.0678003613	3.5499945199	
C	5.0000000000	16.0678003613	16.3299954605	
C	5.0000000000	13.6082827873	0.7100006306	
C	5.0000000000	13.6082827873	4.9700061917	
C	5.0000000000	13.6082827873	9.2300059128	
C	5.0000000000	13.6082827873	13.4900061417	
C	5.0000000000	14.8380516202	1.4199994838	
C	5.0000000000	14.8380516202	5.6799943805	
C	5.0000000000	14.8380516202	9.9399951172	
C	5.0000000000	14.8380516202	14.1999953461	
C	5.0000000000	16.0678003613	0.7100006306	
C	5.0000000000	16.0678003613	4.9700061917	
C	5.0000000000	16.0678003613	13.4900061417	
H	5.0000000000	4.0560362152	3.3849962241	
H	5.0000000000	4.0560362152	7.6449964530	
H	5.0000000000	4.0560362152	11.9049966819	
H	5.0000000000	4.0560362152	16.1649969108	
H	5.0000000000	4.0560362152	0.8750006404	
H	5.0000000000	4.0560362152	5.1350042336	
H	5.0000000000	4.0560362152	9.3950044625	
H	5.0000000000	4.0560362152	13.6550046914	
H	5.0000000000	17.0117643067	3.0050041192	
H	5.0000000000	17.0117643067	15.7850048058	
H	5.0000000000	17.0117643067	1.2549995375	
H	5.0000000000	17.0117643067	5.5149963386	
H	5.0000000000	17.0117643067	14.0349967963	
H	5.0000000000	15.7820155656	7.6449964530	
H	5.0000000000	15.7820155656	11.9049966819	
H	5.0000000000	15.7820155656	9.3950044625	
H	5.0000000000	16.0678003613	12.4000085817	
K_POINTS (automatic)
1 1 50 0 0 0
CELL_PARAMETERS cubic
10.000000   0.0000000   0.000000
 0.000000  21.0678000   0.000000
 0.000000   0.0000000   17.040000
