 &bands
       prefix='AGNR_10_Defect_B',
       outdir='/home/zfwang/scratch/GNRDATASET/AGNR/AGNR_10_Defect_B',
       filband='bands_AGNR_10_Defect_B.dat',
       lsym=.true.,
 /
