 &bands
       prefix='AGNR_10_Defect_F',
       outdir='/home/zfwang/scratch/GNRDATASET/AGNR/AGNR_10_Defect_F',
       filband='bands_AGNR_10_Defect_F.dat',
       lsym=.true.,
 /
