 &control
    calculation='nscf'
    pseudo_dir = '/home/zfwang/hp_home/MySoftware/qe-6.3/pseudo',
    outdir='/home/zfwang/scratch/GNRDATASET/AGNR/AGNR_10_Defect_I'
    prefix='AGNR_10_Defect_I'
    wf_collect = .true.
 /
 &system
    ibrav = 0,
    celldm(1) = 1.8897261249935,
    nat = 94,
    ntyp = 2,
    ecutwfc=40.0,
    ecutrho=480.d0,
    nbnd=500,nosym=.true.,
    occupations='smearing', smearing='marzari-vanderbilt', degauss=0.01
 /
 &electrons
    conv_thr = 1.0D-5
    mixing_beta = 0.7
 /
ATOMIC_SPECIES
C  12.0107  C.pbe-n-rrkjus_psl.0.1.UPF
H  1.00794  H.pbe-rrkjus_psl.0.1.UPF
ATOMIC_POSITIONS (Angstrom)
C  5  6.04610441  2.84000158
C  5  6.04610250  7.10000228
C  5  6.04610250  11.36000156
C  5  6.04610441  15.62000274
C  5  7.27585266  3.54999899
C  5  7.27585313  7.80999946
C  5  7.27585266  12.06999968
C  5  7.27585266  16.32999991
C  5  6.04610347  1.41999816
C  5  6.04610488  5.67999837
C  5  6.04610395  9.93999862
C  5  6.04610441  14.19999885
C  5  8.50560091  2.84000203
C  5  8.50560283  7.10000083
C  5  8.50560188  11.36000156
C  5  8.50560188  15.62000178
C  5  9.73537540  3.54999899
C  5  9.73537634  7.80999946
C  5  9.73537540  12.06999968
C  5  9.73537540  16.32999991
C  5  7.27585122  0.71000117
C  5  7.27585266  4.97000122
C  5  7.27585313  9.23000144
C  5  7.27585266  13.49000166
C  5  8.50560188  1.41999827
C  5  8.50560188  5.67999935
C  5  8.50560283  9.93999862
C  5  8.50560188  14.19999885
C  5  10.96512603  2.84000181
C  5  10.96512508  7.10000228
C  5  10.96512412  11.36000156
C  5  10.96512508  15.62000178
C  5  12.19487475  3.54999946
C  5  12.19487475  7.80999946
C  5  12.19487475  12.06999968
C  5  12.19487475  16.32999991
C  5  9.73537540  0.71000093
C  5  9.73537540  4.97000122
C  5  9.73537634  9.23000144
C  5  9.73537634  13.49000166
C  5  10.96512603  1.41999816
C  5  10.96512508  5.67999837
C  5  10.96512508  9.93999862
C  5  10.96512508  14.19999885
C  5  13.42462444  2.84000062
C  5  13.42462444  7.10000181
C  5  13.42462444  11.36000156
C  5  13.42462444  15.62000083
C  5  14.65439701  3.54999756
C  5  14.65439701  7.80999849
C  5  14.65439701  12.06999968
C  5  14.65439701  16.32999991
C  5  12.19487570  0.71000081
C  5  12.19487570  4.97000169
C  5  12.19487475  9.23000144
C  5  12.19487475  13.49000166
C  5  13.42462444  1.41999840
C  5  13.42462444  5.67999935
C  5  13.42462347  9.93999862
C  5  13.42462444  14.19999885
C  5  15.88414573  2.84000181
C  5  15.88414668  7.10000228
C  5  15.88414668  11.36000250
C  5  15.88414573  15.62000083
C  5  17.11389730  3.54999899
C  5  17.11389730  16.32999991
C  5  14.65439701  0.71000134
C  5  14.65439701  4.97000263
C  5  14.65439701  9.23000144
C  5  14.65439701  13.49000166
C  5  15.88414668  1.41999804
C  5  15.88414668  5.67999887
C  5  15.88414668  9.93999862
C  5  15.88414668  14.19999885
C  5  17.11389730  0.71000105
C  5  17.11389730  13.49000166
H  5  17.11389730  4.64499899
H  5  17.11389730  12.39500166
H  5  5.09780708  3.38750242
H  5  5.09780517  7.64750311
H  5  5.09780517  11.90750240
H  5  5.09780708  16.16750358
H  5  5.09780630  0.87249705
H  5  5.09780773  5.13249727
H  5  5.09780677  9.39249749
H  5  5.09780723  13.65249773
H  5  16.83244386  7.64750338
H  5  16.83244386  11.90750363
H  5  18.06219464  3.00249815
H  5  18.06219464  15.78249907
H  5  16.83244402  5.13249801
H  5  16.83244402  9.39249777
H  5  18.06219447  1.25750216
H  5  18.06219447  14.03750278
K_POINTS (automatic)
1 1 50 0 0 0
CELL_PARAMETERS cubic
10.000000   0.0000000   0.000000
 0.000000  21.0678000   0.000000
 0.000000   0.0000000   17.040000
