 &bands
       prefix='AGNR_10_Defect_C',
       outdir='/home/zfwang/scratch/GNRDATASET/AGNR/AGNR_10_Defect_C',
       filband='bands_AGNR_10_Defect_C.dat',
       lsym=.true.,
 /
