 &bands
       prefix='AGNR_10_Defect_I',
       outdir='/home/zfwang/scratch/GNRDATASET/AGNR/AGNR_10_Defect_I',
       filband='bands_AGNR_10_Defect_I.dat',
       lsym=.true.,
 /
