 &bands
       prefix='AGNR_10_Defect_A',
       outdir='/home/zfwang/scratch/GNRDATASET/AGNR/AGNR_10_Defect_A',
       filband='bands_AGNR_10_Defect_A.dat',
       lsym=.true.,
 /
