 &control
    calculation='nscf'
    pseudo_dir = '/home/zfwang/hp_home/MySoftware/qe-6.3/pseudo',
    outdir='/home/zfwang/scratch/GNRDATASET/AGNR/AGNR_10_Defect_F'
    prefix='AGNR_10_Defect_F'
    wf_collect = .true.
 /
 &system
    ibrav = 0,
    celldm(1) = 1.8897261249935,
    nat = 96,
    ntyp = 2,
    ecutwfc=40.0,
    ecutrho=480.d0,
    nbnd=500,nosym=.true.,
    occupations='smearing', smearing='marzari-vanderbilt', degauss=0.01
 /
 &electrons
    conv_thr = 1.0D-5
    mixing_beta = 0.7
 /
ATOMIC_SPECIES
C  12.0107  C.pbe-n-rrkjus_psl.0.1.UPF
H  1.00794  H.pbe-rrkjus_psl.0.1.UPF
ATOMIC_POSITIONS (Angstrom)
C	5.0000000000	4.9414736300	2.8400058234	
C	5.0000000000	4.9414736300	7.1000063062	
C	5.0000000000	4.9414736300	11.3600060272	
C	5.0000000000	4.9414736300	15.6200062561	
C	5.0000000000	6.1712220571	3.5499945199	
C	5.0000000000	6.1712220571	7.8099944949	
C	5.0000000000	6.1712220571	12.0699952316	
C	5.0000000000	6.1712220571	16.3299954605	
C	5.0000000000	4.9414736300	1.4199994838	
C	5.0000000000	4.9414736300	5.6799943805	
C	5.0000000000	4.9414736300	9.9399951172	
C	5.0000000000	4.9414736300	14.1999953461	
C	5.0000000000	7.4009707981	2.8400058234	
C	5.0000000000	7.4009707981	7.1000063062	
C	5.0000000000	7.4009707981	11.3600060272	
C	5.0000000000	7.4009707981	15.6200062561	
C	5.0000000000	8.6307402589	3.5499945199	
C	5.0000000000	8.6307402589	7.8099944949	
C	5.0000000000	8.6307402589	12.0699952316	
C	5.0000000000	8.6307402589	16.3299954605	
C	5.0000000000	6.1712220571	0.7100006306	
C	5.0000000000	6.1712220571	4.9700061917	
C	5.0000000000	6.1712220571	9.2300059128	
C	5.0000000000	6.1712220571	13.4900061417	
C	5.0000000000	7.4009707981	1.4199994838	
C	5.0000000000	7.4009707981	5.6799943805	
C	5.0000000000	7.4009707981	9.9399951172	
C	5.0000000000	7.4009707981	14.1999953461	
C	5.0000000000	9.8604889999	2.8400058234	
C	5.0000000000	9.8604889999	7.1000063062	
C	5.0000000000	9.8604889999	11.3600060272	
C	5.0000000000	9.8604889999	15.6200062561	
C	5.0000000000	11.0902377410	3.5499945199	
C	5.0000000000	11.0902377410	7.8099944949	
C	5.0000000000	11.0902377410	12.0699952316	
C	5.0000000000	11.0902377410	16.3299954605	
C	5.0000000000	8.6307402589	0.7100006306	
C	5.0000000000	8.6307402589	4.9700061917	
C	5.0000000000	8.6307402589	9.2300059128	
C	5.0000000000	8.6307402589	13.4900061417	
C	5.0000000000	9.8604889999	1.4199994838	
C	5.0000000000	9.8604889999	5.6799943805	
C	5.0000000000	9.8604889999	9.9399951172	
C	5.0000000000	9.8604889999	14.1999953461	
C	5.0000000000	12.3200078296	2.8400058234	
C	5.0000000000	12.3200078296	7.1000063062	
C	5.0000000000	12.3200078296	11.3600060272	
C	5.0000000000	12.3200078296	15.6200062561	
C	5.0000000000	13.5497553149	3.5499945199	
C	5.0000000000	13.5497553149	12.0699952316	
C	5.0000000000	13.5497553149	16.3299954605	
C	5.0000000000	11.0902377410	0.7100006306	
C	5.0000000000	11.0902377410	4.9700061917	
C	5.0000000000	11.0902377410	9.2300059128	
C	5.0000000000	11.0902377410	13.4900061417	
C	5.0000000000	12.3200078296	1.4199994838	
C	5.0000000000	12.3200078296	5.6799943805	
C	5.0000000000	12.3200078296	9.9399951172	
C	5.0000000000	12.3200078296	14.1999953461	
C	5.0000000000	14.7795040560	2.8400058234	
C	5.0000000000	14.7795040560	11.3600060272	
C	5.0000000000	14.7795040560	15.6200062561	
C	5.0000000000	16.0092741446	3.5499945199	
C	5.0000000000	16.0092741446	12.0699952316	
C	5.0000000000	16.0092741446	16.3299954605	
C	5.0000000000	13.5497553149	0.7100006306	
C	5.0000000000	13.5497553149	4.9700061917	
C	5.0000000000	13.5497553149	9.2300059128	
C	5.0000000000	13.5497553149	13.4900061417	
C	5.0000000000	14.7795040560	1.4199994838	
C	5.0000000000	14.7795040560	5.6799943805	
C	5.0000000000	14.7795040560	9.9399951172	
C	5.0000000000	14.7795040560	14.1999953461	
C	5.0000000000	16.0092741446	0.7100006306	
C	5.0000000000	16.0092741446	4.9700061917	
C	5.0000000000	16.0092741446	9.2300059128	
C	5.0000000000	16.0092741446	13.4900061417	
H	5.0000000000	3.9975096845	3.3849962241	
H	5.0000000000	3.9975096845	7.6449964530	
H	5.0000000000	3.9975096845	11.9049966819	
H	5.0000000000	3.9975096845	16.1649969108	
H	5.0000000000	3.9975096845	0.8750006404	
H	5.0000000000	3.9975096845	5.1350042336	
H	5.0000000000	3.9975096845	9.3950044625	
H	5.0000000000	3.9975096845	13.6550046914	
H	5.0000000000	16.9532380900	3.0050041192	
H	5.0000000000	16.9532380900	11.5250045770	
H	5.0000000000	16.9532380900	15.7850048058	
H	5.0000000000	16.9532380900	1.2549995375	
H	5.0000000000	16.9532380900	5.5149963386	
H	5.0000000000	16.9532380900	9.7749965674	
H	5.0000000000	16.9532380900	14.0349967963	
H	5.0000000000	13.2639717750	7.6449964530	
H	5.0000000000	13.5497553149	8.1400083528	
H	5.0000000000	14.7795040560	6.7699924482	
H	5.0000000000	16.0092741446	8.1400083528	
K_POINTS (automatic)
1 1 50 0 0 0
CELL_PARAMETERS cubic
10.000000   0.0000000   0.000000
 0.000000  21.0678000   0.000000
 0.000000   0.0000000   17.040000
