 &bands
       prefix='AGNR_10_Defect_E',
       outdir='/home/zfwang/scratch/GNRDATASET/AGNR/AGNR_10_Defect_E',
       filband='bands_AGNR_10_Defect_E.dat',
       lsym=.true.,
 /
