 &bands
       prefix='AGNR_10_Defect_D',
       outdir='/home/zfwang/scratch/GNRDATASET/AGNR/AGNR_10_Defect_D',
       filband='bands_AGNR_10_Defect_D.dat',
       lsym=.true.,
 /
