 &control
    calculation='nscf'
    pseudo_dir = '/home/zfwang/hp_home/MySoftware/qe-6.3/pseudo',
    outdir='/home/zfwang/scratch/GNRDATASET/AGNR/AGNR_10_Defect_J'
    prefix='AGNR_10_Defect_J'
    wf_collect = .true.
 /
 &system
    ibrav = 0,
    celldm(1) = 1.8897261249935,
    nat = 92,
    ntyp = 2,
    ecutwfc=40.0,
    ecutrho=480.d0,
    nbnd=500,nosym=.true.,
    occupations='smearing', smearing='marzari-vanderbilt', degauss=0.01
 /
 &electrons
    conv_thr = 1.0D-5
    mixing_beta = 0.7
 /
ATOMIC_SPECIES
C  12.0107  C.pbe-n-rrkjus_psl.0.1.UPF
H  1.00794  H.pbe-rrkjus_psl.0.1.UPF
ATOMIC_POSITIONS (Angstrom)
C  5  6.04610330  0.71000145
C  5  6.04610330  4.97000168
C  5  6.04610330  9.23000191
C  5  6.04610330  13.49000213
C  5  7.27585280  1.41999878
C  5  7.27585280  5.67999901
C  5  7.27585280  9.93999924
C  5  7.27585280  14.19999946
C  5  6.04610330  3.54999877
C  5  6.04610330  7.80999900
C  5  6.04610330  12.06999923
C  5  6.04610330  16.32999944
C  5  8.50560233  0.71000145
C  5  8.50560233  4.97000168
C  5  8.50560233  9.23000191
C  5  8.50560233  13.49000213
C  5  9.73537531  1.41999878
C  5  9.73537531  5.67999901
C  5  9.73537531  9.93999924
C  5  9.73537531  14.19999946
C  5  7.27585280  2.84000163
C  5  7.27585280  7.10000184
C  5  7.27585280  11.36000209
C  5  7.27585280  15.62000231
C  5  8.50560233  3.54999877
C  5  8.50560233  7.80999900
C  5  8.50560233  12.06999923
C  5  8.50560233  16.32999944
C  5  10.96512481  0.71000145
C  5  10.96512481  4.97000168
C  5  10.96512481  9.23000191
C  5  10.96512481  13.49000213
C  5  12.19487432  1.41999878
C  5  12.19487432  5.67999901
C  5  12.19487432  9.93999924
C  5  12.19487432  14.19999946
C  5  9.73537531  2.84000163
C  5  9.73537531  7.10000184
C  5  9.73537531  11.36000209
C  5  9.73537531  15.62000231
C  5  10.96512481  3.54999877
C  5  10.96512481  7.80999900
C  5  10.96512481  12.06999923
C  5  10.96512481  16.32999944
C  5  13.42462452  0.71000145
C  5  13.42462452  4.97000168
C  5  13.42462452  9.23000191
C  5  13.42462452  13.49000213
C  5  14.65439682  1.41999878
C  5  14.65439682  5.67999901
C  5  14.65439682  9.93999924
C  5  14.65439682  14.19999946
C  5  12.19487432  2.84000163
C  5  12.19487432  7.10000184
C  5  12.19487432  11.36000209
C  5  12.19487432  15.62000231
C  5  13.42462452  3.54999877
C  5  13.42462452  7.80999900
C  5  13.42462452  12.06999923
C  5  13.42462452  16.32999944
C  5  15.88414702  0.71000145
C  5  15.88414702  4.97000168
C  5  15.88414702  9.23000191
C  5  15.88414702  13.49000213
C  5  17.11389721  1.41999878
C  5  17.11389721  14.19999946
C  5  14.65439682  2.84000163
C  5  14.65439682  7.10000184
C  5  14.65439682  11.36000209
C  5  14.65439682  15.62000231
C  5  15.88414702  3.54999877
C  5  15.88414702  7.80999900
C  5  15.88414702  12.06999923
C  5  15.88414702  16.32999944
C  5  17.11389721  2.84000163
C  5  17.11389721  15.62000231
H  5  5.10212491  1.25500049
H  5  5.10212491  5.51500070
H  5  5.10212491  9.77500094
H  5  5.10212491  14.03500116
H  5  5.10212491  3.00499998
H  5  5.10212491  7.26500022
H  5  5.10212491  11.52500045
H  5  5.10212491  15.78500067
H  5  16.83244446  5.51750233
H  5  16.83244446  9.77750256
H  5  18.06219815  0.87250416
H  5  18.06219815  13.65250484
H  5  16.83244794  7.26250437
H  5  16.83244794  11.52250459
H  5  18.06219468  3.38750228
H  5  18.06219468  16.16750296
K_POINTS (automatic)
1 1 50 0 0 0
CELL_PARAMETERS cubic
10.000000   0.0000000   0.000000
 0.000000  21.0678000   0.000000
 0.000000   0.0000000   17.040000
