 &control
    calculation='nscf'
    pseudo_dir = '/home/zfwang/hp_home/MySoftware/qe-6.3/pseudo',
    outdir='/home/zfwang/scratch/GNRDATASET/AGNR/ls1'
    prefix='ls1'
    wf_collect = .true.
 /
 &system
    ibrav = 0,
    celldm(1) = 1.8897261249935,
    nat = 112,
    ntyp = 2,
    ecutwfc=40.0,
    ecutrho=480.d0,
    nbnd=500,nosym=.true.,
    occupations='smearing', smearing='marzari-vanderbilt', degauss=0.01
 /
 &electrons
    conv_thr = 1.0D-5
    mixing_beta = 0.7
 /
ATOMIC_SPECIES
C  12.0107  C.pbe-n-rrkjus_psl.0.1.UPF
H  1.00794  H.pbe-rrkjus_psl.0.1.UPF
ATOMIC_POSITIONS (Angstrom)
C	5.0000000000	6.3917098939	7.0259162148	
C	5.0000000000	6.3917098939	11.2859164437	
C	5.0000000000	7.6214700937	7.7359049114	
C	5.0000000000	7.6214700937	11.9959046324	
C	5.0000000000	6.3917098939	5.6059047969	
C	5.0000000000	6.3917098939	9.8659045180	
C	5.0000000000	8.8512298465	7.0259162148	
C	5.0000000000	8.8512298465	11.2859164437	
C	5.0000000000	10.0809895992	3.4759046825	
C	5.0000000000	10.0809895992	7.7359049114	
C	5.0000000000	10.0809895992	11.9959046324	
C	5.0000000000	7.6214700937	4.8959161003	
C	5.0000000000	7.6214700937	9.1559163292	
C	5.0000000000	8.8512298465	5.6059047969	
C	5.0000000000	8.8512298465	9.8659045180	
C	5.0000000000	11.3107198477	2.7659159859	
C	5.0000000000	11.3107198477	7.0259162148	
C	5.0000000000	11.3107198477	11.2859164437	
C	5.0000000000	11.3107198477	15.5459166725	
C	5.0000000000	12.5404796004	3.4759046825	
C	5.0000000000	12.5404796004	7.7359049114	
C	5.0000000000	12.5404796004	11.9959046324	
C	5.0000000000	12.5404796004	16.2559048613	
C	5.0000000000	10.0809895992	4.8959161003	
C	5.0000000000	10.0809895992	9.1559163292	
C	5.0000000000	10.0809895992	13.4159165581	
C	5.0000000000	11.3107198477	1.3459096463	
C	5.0000000000	11.3107198477	5.6059047969	
C	5.0000000000	11.3107198477	9.8659045180	
C	5.0000000000	11.3107198477	14.1259047468	
C	5.0000000000	13.7702402472	2.7659159859	
C	5.0000000000	13.7702402472	7.0259162148	
C	5.0000000000	13.7702402472	11.2859164437	
C	5.0000000000	13.7702402472	15.5459166725	
C	5.0000000000	15.0000000000	3.4759046825	
C	5.0000000000	15.0000000000	7.7359049114	
C	5.0000000000	15.0000000000	11.9959046324	
C	5.0000000000	15.0000000000	16.2559048613	
C	5.0000000000	12.5404796004	0.6359089522	
C	5.0000000000	12.5404796004	4.8959161003	
C	5.0000000000	12.5404796004	9.1559163292	
C	5.0000000000	12.5404796004	13.4159165581	
C	5.0000000000	13.7702402472	1.3459096463	
C	5.0000000000	13.7702402472	5.6059047969	
C	5.0000000000	13.7702402472	9.8659045180	
C	5.0000000000	13.7702402472	14.1259047468	
C	5.0000000000	16.2297606468	2.7659159859	
C	5.0000000000	16.2297606468	7.0259162148	
C	5.0000000000	16.2297606468	11.2859164437	
C	5.0000000000	16.2297606468	15.5459166725	
C	5.0000000000	17.4595195055	3.4759046825	
C	5.0000000000	17.4595195055	7.7359049114	
C	5.0000000000	17.4595195055	11.9959046324	
C	5.0000000000	17.4595195055	16.2559048613	
C	5.0000000000	15.0000000000	0.6359089522	
C	5.0000000000	15.0000000000	4.8959161003	
C	5.0000000000	15.0000000000	9.1559163292	
C	5.0000000000	15.0000000000	13.4159165581	
C	5.0000000000	16.2297606468	1.3459096463	
C	5.0000000000	16.2297606468	5.6059047969	
C	5.0000000000	16.2297606468	9.8659045180	
C	5.0000000000	16.2297606468	14.1259047468	
C	5.0000000000	18.6892801523	2.7659159859	
C	5.0000000000	18.6892801523	7.0259162148	
C	5.0000000000	18.6892801523	11.2859164437	
C	5.0000000000	18.6892801523	15.5459166725	
C	5.0000000000	19.9190104008	3.4759046825	
C	5.0000000000	19.9190104008	7.7359049114	
C	5.0000000000	19.9190104008	11.9959046324	
C	5.0000000000	17.4595195055	0.6359089522	
C	5.0000000000	17.4595195055	4.8959161003	
C	5.0000000000	17.4595195055	9.1559163292	
C	5.0000000000	17.4595195055	13.4159165581	
C	5.0000000000	18.6892801523	1.3459096463	
C	5.0000000000	18.6892801523	5.6059047969	
C	5.0000000000	18.6892801523	9.8659045180	
C	5.0000000000	18.6892801523	14.1259047468	
C	5.0000000000	21.1487692595	7.0259162148	
C	5.0000000000	21.1487692595	11.2859164437	
C	5.0000000000	22.3785299063	7.7359049114	
C	5.0000000000	22.3785299063	11.9959046324	
C	5.0000000000	19.9190104008	4.8959161003	
C	5.0000000000	19.9190104008	9.1559163292	
C	5.0000000000	19.9190104008	13.4159165581	
C	5.0000000000	21.1487692595	5.6059047969	
C	5.0000000000	21.1487692595	9.8659045180	
C	5.0000000000	23.6082905531	7.0259162148	
C	5.0000000000	23.6082905531	11.2859164437	
C	5.0000000000	22.3785299063	4.8959161003	
C	5.0000000000	22.3785299063	9.1559163292	
C	5.0000000000	23.6082905531	5.6059047969	
C	5.0000000000	23.6082905531	9.8659045180	
H	5.0000000000	5.4477301240	7.5709063616	
H	5.0000000000	5.4477301240	11.8309070983	
H	5.0000000000	7.6214700937	13.0859032080	
H	5.0000000000	5.4477301240	5.0609141422	
H	5.0000000000	5.4477301240	9.3209148790	
H	5.0000000000	9.1370102763	2.9309142817	
H	5.0000000000	7.6214700937	3.8059012741	
H	5.0000000000	10.3667700291	16.0909073272	
H	5.0000000000	9.1370102763	13.9609072128	
H	5.0000000000	10.3667700291	0.8009090255	
H	5.0000000000	19.6332299709	16.0909073272	
H	5.0000000000	20.8629906178	2.9309142817	
H	5.0000000000	19.6332299709	0.8009090255	
H	5.0000000000	22.3785299063	13.0859032080	
H	5.0000000000	20.8629906178	13.9609072128	
H	5.0000000000	24.5522707701	7.5709063616	
H	5.0000000000	24.5522707701	11.8309070983	
H	5.0000000000	22.3785299063	3.8059012741	
H	5.0000000000	24.5522707701	5.0609141422	
H	5.0000000000	24.5522707701	9.3209148790	
K_POINTS (automatic)
1 1 50 0 0 0
CELL_PARAMETERS cubic
10.000000   0.0000000   0.000000
 0.000000  30.0000000   0.000000
 0.000000   0.0000000   17.040000
