 &control
    calculation='nscf'
    pseudo_dir = '/home/zfwang/hp_home/MySoftware/qe-6.3/pseudo',
    outdir='/home/zfwang/scratch/GNRDATASET/AGNR/ls2'
    prefix='ls2'
    wf_collect = .true.
 /
 &system
    ibrav = 0,
    celldm(1) = 1.8897261249935,
    nat = 112,
    ntyp = 2,
    ecutwfc=40.0,
    ecutrho=480.d0,
    nbnd=500,nosym=.true.,
    occupations='smearing', smearing='marzari-vanderbilt', degauss=0.01
 /
 &electrons
    conv_thr = 1.0D-5
    mixing_beta = 0.7
 /
ATOMIC_SPECIES
C  12.0107  C.pbe-n-rrkjus_psl.0.1.UPF
H  1.00794  H.pbe-rrkjus_psl.0.1.UPF
ATOMIC_POSITIONS (Angstrom)
C     5.000000e+00  6.536220e+00  7.025909e+00    
C     5.000000e+00  6.536220e+00  1.128591e+01    
C     5.000000e+00  7.765976e+00  7.735909e+00    
C     5.000000e+00  7.765976e+00  1.199591e+01    
C     5.000000e+00  6.536220e+00  5.605909e+00    
C     5.000000e+00  6.536220e+00  9.865909e+00    
C     5.000000e+00  8.995732e+00  7.025909e+00    
C     5.000000e+00  8.995732e+00  1.128591e+01    
C     5.000000e+00  1.022549e+01  7.735909e+00    
C     5.000000e+00  1.022549e+01  1.199591e+01    
C     5.000000e+00  7.765976e+00  4.895909e+00    
C     5.000000e+00  7.765976e+00  9.155909e+00    
C     5.000000e+00  8.995732e+00  5.605909e+00    
C     5.000000e+00  8.995732e+00  9.865909e+00    
C     5.000000e+00  1.145524e+01  2.765909e+00    
C     5.000000e+00  1.145524e+01  7.025909e+00    
C     5.000000e+00  1.145524e+01  1.128591e+01    
C     5.000000e+00  1.145524e+01  1.554591e+01    
C     5.000000e+00  1.268500e+01  3.475909e+00    
C     5.000000e+00  1.268500e+01  7.735909e+00    
C     5.000000e+00  1.268500e+01  1.199591e+01    
C     5.000000e+00  1.268500e+01  1.625591e+01    
C     5.000000e+00  1.022549e+01  4.895909e+00    
C     5.000000e+00  1.022549e+01  9.155909e+00    
C     5.000000e+00  1.145524e+01  1.345909e+00    
C     5.000000e+00  1.145524e+01  5.605909e+00    
C     5.000000e+00  1.145524e+01  9.865909e+00    
C     5.000000e+00  1.145524e+01  1.412591e+01    
C     5.000000e+00  1.391476e+01  2.765909e+00    
C     5.000000e+00  1.391476e+01  7.025909e+00    
C     5.000000e+00  1.391476e+01  1.128591e+01    
C     5.000000e+00  1.391476e+01  1.554591e+01    
C     5.000000e+00  1.514451e+01  3.475909e+00    
C     5.000000e+00  1.514451e+01  7.735909e+00    
C     5.000000e+00  1.514451e+01  1.199591e+01    
C     5.000000e+00  1.514451e+01  1.625591e+01    
C     5.000000e+00  1.268500e+01  6.359091e-01    
C     5.000000e+00  1.268500e+01  4.895909e+00    
C     5.000000e+00  1.268500e+01  9.155909e+00    
C     5.000000e+00  1.268500e+01  1.341591e+01    
C     5.000000e+00  1.391476e+01  1.345909e+00    
C     5.000000e+00  1.391476e+01  5.605909e+00    
C     5.000000e+00  1.391476e+01  9.865909e+00    
C     5.000000e+00  1.391476e+01  1.412591e+01    
C     5.000000e+00  1.637427e+01  2.765909e+00    
C     5.000000e+00  1.637427e+01  7.025909e+00    
C     5.000000e+00  1.637427e+01  1.128591e+01    
C     5.000000e+00  1.637427e+01  1.554591e+01    
C     5.000000e+00  1.760402e+01  3.475909e+00    
C     5.000000e+00  1.760402e+01  7.735909e+00    
C     5.000000e+00  1.760402e+01  1.199591e+01    
C     5.000000e+00  1.760402e+01  1.625591e+01    
C     5.000000e+00  1.514451e+01  6.359091e-01    
C     5.000000e+00  1.514451e+01  4.895909e+00    
C     5.000000e+00  1.514451e+01  9.155909e+00    
C     5.000000e+00  1.514451e+01  1.341591e+01    
C     5.000000e+00  1.637427e+01  1.345909e+00    
C     5.000000e+00  1.637427e+01  5.605909e+00    
C     5.000000e+00  1.637427e+01  9.865909e+00    
C     5.000000e+00  1.637427e+01  1.412591e+01    
C     5.000000e+00  1.883378e+01  2.765909e+00    
C     5.000000e+00  1.883378e+01  7.025909e+00    
C     5.000000e+00  1.883378e+01  1.128591e+01    
C     5.000000e+00  1.883378e+01  1.554591e+01    
C     5.000000e+00  2.006354e+01  7.735909e+00    
C     5.000000e+00  2.006354e+01  1.199591e+01    
C     5.000000e+00  1.760402e+01  6.359091e-01    
C     5.000000e+00  1.760402e+01  4.895909e+00    
C     5.000000e+00  1.760402e+01  9.155909e+00    
C     5.000000e+00  1.760402e+01  1.341591e+01    
C     5.000000e+00  1.883378e+01  1.345909e+00    
C     5.000000e+00  1.883378e+01  5.605909e+00    
C     5.000000e+00  1.883378e+01  9.865909e+00    
C     5.000000e+00  1.883378e+01  1.412591e+01    
C     5.000000e+00  2.129329e+01  7.025909e+00    
C     5.000000e+00  2.129329e+01  1.128591e+01    
C     5.000000e+00  2.252305e+01  7.735909e+00    
C     5.000000e+00  2.252305e+01  1.199591e+01    
C     5.000000e+00  2.006354e+01  4.895909e+00    
C     5.000000e+00  2.006354e+01  9.155909e+00    
C     5.000000e+00  2.129329e+01  5.605909e+00    
C     5.000000e+00  2.129329e+01  9.865909e+00    
C     5.000000e+00  2.375281e+01  7.025909e+00    
C     5.000000e+00  2.375281e+01  1.128591e+01    
C     5.000000e+00  2.252305e+01  4.895909e+00    
C     5.000000e+00  2.252305e+01  9.155909e+00    
C     5.000000e+00  2.375281e+01  5.605909e+00    
C     5.000000e+00  2.375281e+01  9.865909e+00    
H     5.000000e+00  5.592252e+00  7.570909e+00    
H     5.000000e+00  5.592252e+00  1.183091e+01    
H     5.000000e+00  7.765976e+00  1.308591e+01    
H     5.000000e+00  5.592252e+00  5.060909e+00    
H     5.000000e+00  5.592252e+00  9.320909e+00    
H     5.000000e+00  1.022549e+01  1.308591e+01    
H     5.000000e+00  7.765976e+00  3.805909e+00    
H     5.000000e+00  1.051128e+01  3.310909e+00    
H     5.000000e+00  1.051128e+01  1.609091e+01    
H     5.000000e+00  1.022549e+01  3.805909e+00    
H     5.000000e+00  1.051128e+01  8.009092e-01    
H     5.000000e+00  1.051128e+01  1.358091e+01    
H     5.000000e+00  1.977775e+01  3.310909e+00    
H     5.000000e+00  1.977775e+01  1.609091e+01    
H     5.000000e+00  2.006354e+01  1.308591e+01    
H     5.000000e+00  1.977775e+01  8.009092e-01    
H     5.000000e+00  1.977775e+01  1.358091e+01    
H     5.000000e+00  2.252305e+01  1.308591e+01    
H     5.000000e+00  2.006354e+01  3.805909e+00    
H     5.000000e+00  2.469677e+01  7.570909e+00    
H     5.000000e+00  2.469677e+01  1.183091e+01    
H     5.000000e+00  2.252305e+01  3.805909e+00    
H     5.000000e+00  2.469677e+01  5.060909e+00    
H     5.000000e+00  2.469677e+01  9.320909e+00	
K_POINTS (automatic)
1 1 50 0 0 0
CELL_PARAMETERS cubic
10.000000   0.0000000   0.000000
 0.000000  30.0000000   0.000000
 0.000000   0.0000000   17.040000
