 &control
    calculation='relax'
    pseudo_dir = '/home/zfwang/hp_home/MySoftware/qe-6.3/pseudo'
    outdir='/home/zfwang/scratch/GNRDATASET/AGNR/LS7_2_9_2',
    prefix='LS7_2_9_2',
    tstress = .true.
    tprnfor = .true.
    etot_conv_thr = 1.0D-4,
    forc_conv_thr = 1.0D-3,
    wf_collect = .true.,
 /
 &system
    ibrav = 0,
    celldm(1) = 1.8897261249935,
    nat = 80,
    ntyp = 2,
    ecutwfc =40.d0
    ecutrho =480.d0
    occupations='smearing', smearing='marzari-vanderbilt', degauss=0.01
	nosym=.true
 /
 &electrons
    conv_thr = 1.0D-5
    mixing_beta = 0.7
 /
  &IONS
    ion_dynamics = 'bfgs'
	upscale = 1.0D4
	
 /
ATOMIC_SPECIES
C  12.0107  C.pbe-n-rrkjus_psl.0.1.UPF
H  1.00794  H.pbe-rrkjus_psl.0.1.UPF
ATOMIC_POSITIONS (Angstrom)
C	5.0000000000	10.0809895992	7.1000063062	
C	5.0000000000	10.0809895992	11.3600060272	
C	5.0000000000	11.3107198477	3.5499945199	
C	5.0000000000	11.3107198477	7.8099944949	
C	5.0000000000	11.3107198477	12.0699952316	
C	5.0000000000	11.3107198477	16.3299954605	
C	5.0000000000	10.0809895992	5.6799943805	
C	5.0000000000	10.0809895992	9.9399951172	
C	5.0000000000	12.5404796004	2.8400058234	
C	5.0000000000	12.5404796004	7.1000063062	
C	5.0000000000	12.5404796004	11.3600060272	
C	5.0000000000	12.5404796004	15.6200062561	
C	5.0000000000	13.7702402472	3.5499945199	
C	5.0000000000	13.7702402472	7.8099944949	
C	5.0000000000	13.7702402472	12.0699952316	
C	5.0000000000	13.7702402472	16.3299954605	
C	5.0000000000	11.3107198477	0.7100006306	
C	5.0000000000	11.3107198477	4.9700061917	
C	5.0000000000	11.3107198477	9.2300059128	
C	5.0000000000	11.3107198477	13.4900061417	
C	5.0000000000	12.5404796004	1.4199994838	
C	5.0000000000	12.5404796004	5.6799943805	
C	5.0000000000	12.5404796004	9.9399951172	
C	5.0000000000	12.5404796004	14.1999953461	
C	5.0000000000	15.0000000000	2.8400058234	
C	5.0000000000	15.0000000000	7.1000063062	
C	5.0000000000	15.0000000000	11.3600060272	
C	5.0000000000	15.0000000000	15.6200062561	
C	5.0000000000	16.2297606468	3.5499945199	
C	5.0000000000	16.2297606468	7.8099944949	
C	5.0000000000	16.2297606468	12.0699952316	
C	5.0000000000	16.2297606468	16.3299954605	
C	5.0000000000	13.7702402472	0.7100006306	
C	5.0000000000	13.7702402472	4.9700061917	
C	5.0000000000	13.7702402472	9.2300059128	
C	5.0000000000	13.7702402472	13.4900061417	
C	5.0000000000	15.0000000000	1.4199994838	
C	5.0000000000	15.0000000000	5.6799943805	
C	5.0000000000	15.0000000000	9.9399951172	
C	5.0000000000	15.0000000000	14.1999953461	
C	5.0000000000	17.4595195055	2.8400058234	
C	5.0000000000	17.4595195055	7.1000063062	
C	5.0000000000	17.4595195055	11.3600060272	
C	5.0000000000	17.4595195055	15.6200062561	
C	5.0000000000	18.6892801523	3.5499945199	
C	5.0000000000	18.6892801523	7.8099944949	
C	5.0000000000	18.6892801523	12.0699952316	
C	5.0000000000	18.6892801523	16.3299954605	
C	5.0000000000	16.2297606468	0.7100006306	
C	5.0000000000	16.2297606468	4.9700061917	
C	5.0000000000	16.2297606468	9.2300059128	
C	5.0000000000	16.2297606468	13.4900061417	
C	5.0000000000	17.4595195055	1.4199994838	
C	5.0000000000	17.4595195055	5.6799943805	
C	5.0000000000	17.4595195055	9.9399951172	
C	5.0000000000	17.4595195055	14.1999953461	
C	5.0000000000	19.9190104008	7.1000063062	
C	5.0000000000	19.9190104008	11.3600060272	
C	5.0000000000	18.6892801523	0.7100006306	
C	5.0000000000	18.6892801523	4.9700061917	
C	5.0000000000	18.6892801523	9.2300059128	
C	5.0000000000	18.6892801523	13.4900061417	
C	5.0000000000	19.9190104008	5.6799943805	
C	5.0000000000	19.9190104008	9.9399951172	
H	5.0000000000	9.1370102763	7.6449964530	
H	5.0000000000	9.1370102763	11.9049966819	
H	5.0000000000	9.1370102763	5.1350042336	
H	5.0000000000	9.1370102763	9.3950044625	
H	5.0000000000	20.8629906178	7.6449964530	
H	5.0000000000	20.8629906178	11.9049966819	
H	5.0000000000	20.8629906178	5.1350042336	
H	5.0000000000	20.8629906178	9.3950044625	
H	5.0000000000	10.3667700291	3.0050041192	
H	5.0000000000	10.3667700291	15.7850048058	
H	5.0000000000	10.3667700291	1.2549995375	
H	5.0000000000	10.3667700291	14.0349967963	
H	5.0000000000	19.6332299709	3.0050041192	
H	5.0000000000	19.6332299709	15.7850048058	
H	5.0000000000	19.6332299709	1.2549995375	
H	5.0000000000	19.6332299709	14.0349967963	
K_POINTS (automatic)
1 1 10 0 0 0
CELL_PARAMETERS cubic
10.000000   0.0000000   0.000000
 0.000000  30.0000000   0.000000
 0.000000   0.0000000   17.040000
