 &control
    calculation='relax'
    pseudo_dir = '/home/zfwang/hp_home/MySoftware/qe-6.3/pseudo'
    outdir='/home/zfwang/scratch/GNRDATASET/AGNR/LS7_2_11_2_a',
    prefix='LS7_2_11_2_a',
    tstress = .true.
    tprnfor = .true.
    etot_conv_thr = 1.0D-4,
    forc_conv_thr = 1.0D-3,
    wf_collect = .true.,
 /
 &system
    ibrav = 0,
    celldm(1) = 1.8897261249935,
    nat = 92,
    ntyp = 2,
    ecutwfc =40.d0
    ecutrho =480.d0
    occupations='smearing', smearing='marzari-vanderbilt', degauss=0.01
	nosym=.true
 /
 &electrons
    conv_thr = 1.0D-5
    mixing_beta = 0.7
 /
  &IONS
    ion_dynamics = 'bfgs'
	upscale = 1.0D4
	
 /
ATOMIC_SPECIES
C  12.0107  C.pbe-n-rrkjus_psl.0.1.UPF
H  1.00794  H.pbe-rrkjus_psl.0.1.UPF
ATOMIC_POSITIONS (Angstrom)
C	5.0000000000	8.8512298465	7.1000063062	
C	5.0000000000	8.8512298465	11.3600060272	
C	5.0000000000	10.0809895992	7.8099944949	
C	5.0000000000	10.0809895992	12.0699952316	
C	5.0000000000	8.8512298465	5.6799943805	
C	5.0000000000	8.8512298465	9.9399951172	
C	5.0000000000	11.3107198477	2.8400058234	
C	5.0000000000	11.3107198477	7.1000063062	
C	5.0000000000	11.3107198477	11.3600060272	
C	5.0000000000	11.3107198477	15.6200062561	
C	5.0000000000	12.5404796004	3.5499945199	
C	5.0000000000	12.5404796004	7.8099944949	
C	5.0000000000	12.5404796004	12.0699952316	
C	5.0000000000	12.5404796004	16.3299954605	
C	5.0000000000	10.0809895992	4.9700061917	
C	5.0000000000	10.0809895992	9.2300059128	
C	5.0000000000	11.3107198477	1.4199994838	
C	5.0000000000	11.3107198477	5.6799943805	
C	5.0000000000	11.3107198477	9.9399951172	
C	5.0000000000	11.3107198477	14.1999953461	
C	5.0000000000	13.7702402472	2.8400058234	
C	5.0000000000	13.7702402472	7.1000063062	
C	5.0000000000	13.7702402472	11.3600060272	
C	5.0000000000	13.7702402472	15.6200062561	
C	5.0000000000	15.0000000000	3.5499945199	
C	5.0000000000	15.0000000000	7.8099944949	
C	5.0000000000	15.0000000000	12.0699952316	
C	5.0000000000	15.0000000000	16.3299954605	
C	5.0000000000	12.5404796004	0.7100006306	
C	5.0000000000	12.5404796004	4.9700061917	
C	5.0000000000	12.5404796004	9.2300059128	
C	5.0000000000	12.5404796004	13.4900061417	
C	5.0000000000	13.7702402472	1.4199994838	
C	5.0000000000	13.7702402472	5.6799943805	
C	5.0000000000	13.7702402472	9.9399951172	
C	5.0000000000	13.7702402472	14.1999953461	
C	5.0000000000	16.2297606468	2.8400058234	
C	5.0000000000	16.2297606468	7.1000063062	
C	5.0000000000	16.2297606468	11.3600060272	
C	5.0000000000	16.2297606468	15.6200062561	
C	5.0000000000	17.4595195055	3.5499945199	
C	5.0000000000	17.4595195055	7.8099944949	
C	5.0000000000	17.4595195055	12.0699952316	
C	5.0000000000	17.4595195055	16.3299954605	
C	5.0000000000	15.0000000000	0.7100006306	
C	5.0000000000	15.0000000000	4.9700061917	
C	5.0000000000	15.0000000000	9.2300059128	
C	5.0000000000	15.0000000000	13.4900061417	
C	5.0000000000	16.2297606468	1.4199994838	
C	5.0000000000	16.2297606468	5.6799943805	
C	5.0000000000	16.2297606468	9.9399951172	
C	5.0000000000	16.2297606468	14.1999953461	
C	5.0000000000	18.6892801523	2.8400058234	
C	5.0000000000	18.6892801523	7.1000063062	
C	5.0000000000	18.6892801523	11.3600060272	
C	5.0000000000	18.6892801523	15.6200062561	
C	5.0000000000	19.9190104008	7.8099944949	
C	5.0000000000	19.9190104008	12.0699952316	
C	5.0000000000	17.4595195055	0.7100006306	
C	5.0000000000	17.4595195055	4.9700061917	
C	5.0000000000	17.4595195055	9.2300059128	
C	5.0000000000	17.4595195055	13.4900061417	
C	5.0000000000	18.6892801523	1.4199994838	
C	5.0000000000	18.6892801523	5.6799943805	
C	5.0000000000	18.6892801523	9.9399951172	
C	5.0000000000	18.6892801523	14.1999953461	
C	5.0000000000	21.1487692595	7.1000063062	
C	5.0000000000	21.1487692595	11.3600060272	
C	5.0000000000	19.9190104008	4.9700061917	
C	5.0000000000	19.9190104008	9.2300059128	
C	5.0000000000	21.1487692595	5.6799943805	
C	5.0000000000	21.1487692595	9.9399951172	
H	5.0000000000	7.9072496295	7.6449964530	
H	5.0000000000	7.9072496295	11.9049966819	
H	5.0000000000	7.9072496295	5.1350042336	
H	5.0000000000	7.9072496295	9.3950044625	
H	5.0000000000	22.0927494764	7.6449964530	
H	5.0000000000	22.0927494764	11.9049966819	
H	5.0000000000	22.0927494764	5.1350042336	
H	5.0000000000	22.0927494764	9.3950044625	
H	5.0000000000	10.0809895992	13.1599927916	
H	5.0000000000	10.3667700291	3.3849962241	
H	5.0000000000	10.3667700291	16.1649969108	
H	5.0000000000	10.0809895992	3.8800081240	
H	5.0000000000	10.3667700291	0.8750006404	
H	5.0000000000	10.3667700291	13.6550046914	
H	5.0000000000	19.6332299709	3.3849962241	
H	5.0000000000	19.6332299709	16.1649969108	
H	5.0000000000	19.9190104008	13.1599927916	
H	5.0000000000	19.6332299709	0.8750006404	
H	5.0000000000	19.6332299709	13.6550046914	
H	5.0000000000	19.9190104008	3.8800081240	
K_POINTS (automatic)
1 1 10 0 0 0
CELL_PARAMETERS cubic
10.000000   0.0000000   0.000000
 0.000000  30.0000000   0.000000
 0.000000   0.0000000   17.040000
