 &control
    calculation='relax'
    pseudo_dir = '/home/zfwang/hp_home/MySoftware/qe-6.3/pseudo'
    outdir='/home/zfwang/scratch/GNRDATASET/AGNR/LS7_2_9_3',
    prefix='LS7_2_9_3',
    tstress = .true.
    tprnfor = .true.
    etot_conv_thr = 1.0D-4,
    forc_conv_thr = 1.0D-3,
    wf_collect = .true.,
 /
 &system
    ibrav = 0,
    celldm(1) = 1.8897261249935,
    nat = 102,
    ntyp = 2,
    ecutwfc =40.d0
    ecutrho =480.d0
    occupations='smearing', smearing='marzari-vanderbilt', degauss=0.01
	nosym=.true
 /
 &electrons
    conv_thr = 1.0D-5
    mixing_beta = 0.7
 /
  &IONS
    ion_dynamics = 'bfgs'
	upscale = 1.0D4
	
 /
ATOMIC_SPECIES
C  12.0107  C.pbe-n-rrkjus_psl.0.1.UPF
H  1.00794  H.pbe-rrkjus_psl.0.1.UPF
ATOMIC_POSITIONS (Angstrom)
C	5.0000000000	10.0809895992	7.0999923398	
C	5.0000000000	10.0809895992	11.3599925681	
C	5.0000000000	10.0809895992	15.6199921616	
C	5.0000000000	11.3107198477	3.5500069613	
C	5.0000000000	11.3107198477	7.8100068722	
C	5.0000000000	11.3107198477	12.0700071005	
C	5.0000000000	11.3107198477	16.3300066940	
C	5.0000000000	11.3107198477	20.5900062875	
C	5.0000000000	10.0809895992	5.6800070755	
C	5.0000000000	10.0809895992	9.9400066690	
C	5.0000000000	10.0809895992	14.2000062625	
C	5.0000000000	12.5404796004	2.8399927463	
C	5.0000000000	12.5404796004	7.0999923398	
C	5.0000000000	12.5404796004	11.3599925681	
C	5.0000000000	12.5404796004	15.6199921616	
C	5.0000000000	12.5404796004	19.8799917551	
C	5.0000000000	13.7702402472	3.5500069613	
C	5.0000000000	13.7702402472	7.8100068722	
C	5.0000000000	13.7702402472	12.0700071005	
C	5.0000000000	13.7702402472	16.3300066940	
C	5.0000000000	13.7702402472	20.5900062875	
C	5.0000000000	11.3107198477	0.7099992975	
C	5.0000000000	11.3107198477	4.9699928605	
C	5.0000000000	11.3107198477	9.2299927713	
C	5.0000000000	11.3107198477	13.4899929996	
C	5.0000000000	11.3107198477	17.7499925931	
C	5.0000000000	12.5404796004	1.4200006580	
C	5.0000000000	12.5404796004	5.6800070755	
C	5.0000000000	12.5404796004	9.9400066690	
C	5.0000000000	12.5404796004	14.2000062625	
C	5.0000000000	12.5404796004	18.4600058560	
C	5.0000000000	15.0000000000	2.8399927463	
C	5.0000000000	15.0000000000	7.0999923398	
C	5.0000000000	15.0000000000	11.3599925681	
C	5.0000000000	15.0000000000	15.6199921616	
C	5.0000000000	15.0000000000	19.8799917551	
C	5.0000000000	16.2297606468	3.5500069613	
C	5.0000000000	16.2297606468	7.8100068722	
C	5.0000000000	16.2297606468	12.0700071005	
C	5.0000000000	16.2297606468	16.3300066940	
C	5.0000000000	16.2297606468	20.5900062875	
C	5.0000000000	13.7702402472	0.7099992975	
C	5.0000000000	13.7702402472	4.9699928605	
C	5.0000000000	13.7702402472	9.2299927713	
C	5.0000000000	13.7702402472	13.4899929996	
C	5.0000000000	13.7702402472	17.7499925931	
C	5.0000000000	15.0000000000	1.4200006580	
C	5.0000000000	15.0000000000	5.6800070755	
C	5.0000000000	15.0000000000	9.9400066690	
C	5.0000000000	15.0000000000	14.2000062625	
C	5.0000000000	15.0000000000	18.4600058560	
C	5.0000000000	17.4595195055	2.8399927463	
C	5.0000000000	17.4595195055	7.0999923398	
C	5.0000000000	17.4595195055	11.3599925681	
C	5.0000000000	17.4595195055	15.6199921616	
C	5.0000000000	17.4595195055	19.8799917551	
C	5.0000000000	18.6892801523	3.5500069613	
C	5.0000000000	18.6892801523	7.8100068722	
C	5.0000000000	18.6892801523	12.0700071005	
C	5.0000000000	18.6892801523	16.3300066940	
C	5.0000000000	18.6892801523	20.5900062875	
C	5.0000000000	16.2297606468	0.7099992975	
C	5.0000000000	16.2297606468	4.9699928605	
C	5.0000000000	16.2297606468	9.2299927713	
C	5.0000000000	16.2297606468	13.4899929996	
C	5.0000000000	16.2297606468	17.7499925931	
C	5.0000000000	17.4595195055	1.4200006580	
C	5.0000000000	17.4595195055	5.6800070755	
C	5.0000000000	17.4595195055	9.9400066690	
C	5.0000000000	17.4595195055	14.2000062625	
C	5.0000000000	17.4595195055	18.4600058560	
C	5.0000000000	19.9190104008	7.0999923398	
C	5.0000000000	19.9190104008	11.3599925681	
C	5.0000000000	19.9190104008	15.6199921616	
C	5.0000000000	18.6892801523	0.7099992975	
C	5.0000000000	18.6892801523	4.9699928605	
C	5.0000000000	18.6892801523	9.2299927713	
C	5.0000000000	18.6892801523	13.4899929996	
C	5.0000000000	18.6892801523	17.7499925931	
C	5.0000000000	19.9190104008	5.6800070755	
C	5.0000000000	19.9190104008	9.9400066690	
C	5.0000000000	19.9190104008	14.2000062625	
H	5.0000000000	9.1370102763	7.6449958954	
H	5.0000000000	9.1370102763	11.9049961237	
H	5.0000000000	9.1370102763	16.1649957172	
H	5.0000000000	9.1370102763	5.1350038373	
H	5.0000000000	9.1370102763	9.3950037482	
H	5.0000000000	9.1370102763	13.6550039765	
H	5.0000000000	20.8629906178	7.6449958954	
H	5.0000000000	20.8629906178	11.9049961237	
H	5.0000000000	20.8629906178	16.1649957172	
H	5.0000000000	20.8629906178	5.1350038373	
H	5.0000000000	20.8629906178	9.3950037482	
H	5.0000000000	20.8629906178	13.6550039765	
H	5.0000000000	10.3667700291	3.0050040405	
H	5.0000000000	10.3667700291	20.0450027319	
H	5.0000000000	10.3667700291	1.2550002345	
H	5.0000000000	10.3667700291	18.2949948791	
H	5.0000000000	19.6332299709	3.0050040405	
H	5.0000000000	19.6332299709	20.0450027319	
H	5.0000000000	19.6332299709	1.2550002345	
H	5.0000000000	19.6332299709	18.2949948791	
K_POINTS (automatic)
1 1 10 0 0 0
CELL_PARAMETERS cubic
10.000000   0.0000000   0.000000
 0.000000  30.0000000   0.000000
 0.000000   0.0000000   21.300000
