 &bands
       prefix='LS7_2_11_2_b',
       outdir='/home/zfwang/scratch/GNRDATASET/AGNR/LS7_2_11_2_b',
       filband='bands_LS7_2_11_2_b.dat',
       lsym=.true.,
 /
