 &control
    calculation='nscf'
    pseudo_dir = '/home/zfwang/hp_home/MySoftware/qe-6.3/pseudo',
    outdir='/home/zfwang/scratch/GNRDATASET/AGNR/LS9_2_11_3'
    prefix='LS9_2_11_3'
    wf_collect = .true.
 /
 &system
    ibrav = 0,
    celldm(1) = 1.8897261249935,
    nat = 122,
    ntyp = 2,
    ecutwfc=40.0,
    ecutrho=480.d0,
    nbnd=500,nosym=.true.,
    occupations='smearing', smearing='marzari-vanderbilt', degauss=0.01
 /
 &electrons
    conv_thr = 1.0D-5
    mixing_beta = 0.7
 /
ATOMIC_SPECIES
C  12.0107  C.pbe-n-rrkjus_psl.0.1.UPF
H  1.00794  H.pbe-rrkjus_psl.0.1.UPF
ATOMIC_POSITIONS (Angstrom)
C	5.0000000000	8.8512298465	7.0999923398	
C	5.0000000000	8.8512298465	11.3599925681	
C	5.0000000000	8.8512298465	15.6199921616	
C	5.0000000000	10.0809895992	3.5500069613	
C	5.0000000000	10.0809895992	7.8100068722	
C	5.0000000000	10.0809895992	12.0700071005	
C	5.0000000000	10.0809895992	16.3300066940	
C	5.0000000000	10.0809895992	20.5900062875	
C	5.0000000000	8.8512298465	5.6800070755	
C	5.0000000000	8.8512298465	9.9400066690	
C	5.0000000000	8.8512298465	14.2000062625	
C	5.0000000000	11.3107198477	2.8399927463	
C	5.0000000000	11.3107198477	7.0999923398	
C	5.0000000000	11.3107198477	11.3599925681	
C	5.0000000000	11.3107198477	15.6199921616	
C	5.0000000000	11.3107198477	19.8799917551	
C	5.0000000000	12.5404796004	3.5500069613	
C	5.0000000000	12.5404796004	7.8100068722	
C	5.0000000000	12.5404796004	12.0700071005	
C	5.0000000000	12.5404796004	16.3300066940	
C	5.0000000000	12.5404796004	20.5900062875	
C	5.0000000000	10.0809895992	0.7099992975	
C	5.0000000000	10.0809895992	4.9699928605	
C	5.0000000000	10.0809895992	9.2299927713	
C	5.0000000000	10.0809895992	13.4899929996	
C	5.0000000000	10.0809895992	17.7499925931	
C	5.0000000000	11.3107198477	1.4200006580	
C	5.0000000000	11.3107198477	5.6800070755	
C	5.0000000000	11.3107198477	9.9400066690	
C	5.0000000000	11.3107198477	14.2000062625	
C	5.0000000000	11.3107198477	18.4600058560	
C	5.0000000000	13.7702402472	2.8399927463	
C	5.0000000000	13.7702402472	7.0999923398	
C	5.0000000000	13.7702402472	11.3599925681	
C	5.0000000000	13.7702402472	15.6199921616	
C	5.0000000000	13.7702402472	19.8799917551	
C	5.0000000000	15.0000000000	3.5500069613	
C	5.0000000000	15.0000000000	7.8100068722	
C	5.0000000000	15.0000000000	12.0700071005	
C	5.0000000000	15.0000000000	16.3300066940	
C	5.0000000000	15.0000000000	20.5900062875	
C	5.0000000000	12.5404796004	0.7099992975	
C	5.0000000000	12.5404796004	4.9699928605	
C	5.0000000000	12.5404796004	9.2299927713	
C	5.0000000000	12.5404796004	13.4899929996	
C	5.0000000000	12.5404796004	17.7499925931	
C	5.0000000000	13.7702402472	1.4200006580	
C	5.0000000000	13.7702402472	5.6800070755	
C	5.0000000000	13.7702402472	9.9400066690	
C	5.0000000000	13.7702402472	14.2000062625	
C	5.0000000000	13.7702402472	18.4600058560	
C	5.0000000000	16.2297606468	2.8399927463	
C	5.0000000000	16.2297606468	7.0999923398	
C	5.0000000000	16.2297606468	11.3599925681	
C	5.0000000000	16.2297606468	15.6199921616	
C	5.0000000000	16.2297606468	19.8799917551	
C	5.0000000000	17.4595195055	3.5500069613	
C	5.0000000000	17.4595195055	7.8100068722	
C	5.0000000000	17.4595195055	12.0700071005	
C	5.0000000000	17.4595195055	16.3300066940	
C	5.0000000000	17.4595195055	20.5900062875	
C	5.0000000000	15.0000000000	0.7099992975	
C	5.0000000000	15.0000000000	4.9699928605	
C	5.0000000000	15.0000000000	9.2299927713	
C	5.0000000000	15.0000000000	13.4899929996	
C	5.0000000000	15.0000000000	17.7499925931	
C	5.0000000000	16.2297606468	1.4200006580	
C	5.0000000000	16.2297606468	5.6800070755	
C	5.0000000000	16.2297606468	9.9400066690	
C	5.0000000000	16.2297606468	14.2000062625	
C	5.0000000000	16.2297606468	18.4600058560	
C	5.0000000000	18.6892801523	2.8399927463	
C	5.0000000000	18.6892801523	7.0999923398	
C	5.0000000000	18.6892801523	11.3599925681	
C	5.0000000000	18.6892801523	15.6199921616	
C	5.0000000000	18.6892801523	19.8799917551	
C	5.0000000000	19.9190104008	3.5500069613	
C	5.0000000000	19.9190104008	7.8100068722	
C	5.0000000000	19.9190104008	12.0700071005	
C	5.0000000000	19.9190104008	16.3300066940	
C	5.0000000000	19.9190104008	20.5900062875	
C	5.0000000000	17.4595195055	0.7099992975	
C	5.0000000000	17.4595195055	4.9699928605	
C	5.0000000000	17.4595195055	9.2299927713	
C	5.0000000000	17.4595195055	13.4899929996	
C	5.0000000000	17.4595195055	17.7499925931	
C	5.0000000000	18.6892801523	1.4200006580	
C	5.0000000000	18.6892801523	5.6800070755	
C	5.0000000000	18.6892801523	9.9400066690	
C	5.0000000000	18.6892801523	14.2000062625	
C	5.0000000000	18.6892801523	18.4600058560	
C	5.0000000000	21.1487692595	7.0999923398	
C	5.0000000000	21.1487692595	11.3599925681	
C	5.0000000000	21.1487692595	15.6199921616	
C	5.0000000000	19.9190104008	0.7099992975	
C	5.0000000000	19.9190104008	4.9699928605	
C	5.0000000000	19.9190104008	9.2299927713	
C	5.0000000000	19.9190104008	13.4899929996	
C	5.0000000000	19.9190104008	17.7499925931	
C	5.0000000000	21.1487692595	5.6800070755	
C	5.0000000000	21.1487692595	9.9400066690	
C	5.0000000000	21.1487692595	14.2000062625	
H	5.0000000000	7.9072496295	7.6449958954	
H	5.0000000000	7.9072496295	11.9049961237	
H	5.0000000000	7.9072496295	16.1649957172	
H	5.0000000000	7.9072496295	5.1350038373	
H	5.0000000000	7.9072496295	9.3950037482	
H	5.0000000000	7.9072496295	13.6550039765	
H	5.0000000000	22.0927494764	7.6449958954	
H	5.0000000000	22.0927494764	11.9049961237	
H	5.0000000000	22.0927494764	16.1649957172	
H	5.0000000000	22.0927494764	5.1350038373	
H	5.0000000000	22.0927494764	9.3950037482	
H	5.0000000000	22.0927494764	13.6550039765	
H	5.0000000000	9.1370102763	3.0050040405	
H	5.0000000000	9.1370102763	20.0450027319	
H	5.0000000000	9.1370102763	1.2550002345	
H	5.0000000000	9.1370102763	18.2949948791	
H	5.0000000000	20.8629906178	3.0050040405	
H	5.0000000000	20.8629906178	20.0450027319	
H	5.0000000000	20.8629906178	1.2550002345	
H	5.0000000000	20.8629906178	18.2949948791	
K_POINTS (automatic)
1 1 50 0 0 0
CELL_PARAMETERS cubic
10.000000   0.0000000   0.000000
 0.000000  30.0000000   0.000000
 0.000000   0.0000000   21.300000
