 &bands
       prefix='LS9_2_9_2',
       outdir='/home/zfwang/scratch/GNRDATASET/AGNR/LS9_2_9_2',
       filband='bands_LS9_2_9_2.dat',
       lsym=.true.,
 /
