 &control
    calculation='nscf'
    pseudo_dir = '/home/zfwang/hp_home/MySoftware/qe-6.3/pseudo',
    outdir='/home/zfwang/scratch/GNRDATASET/AGNR/LS9_2_13_2_b'
    prefix='LS9_2_13_2_b'
    wf_collect = .true.
 /
 &system
    ibrav = 0,
    celldm(1) = 1.8897261249935,
    nat = 108,
    ntyp = 2,
    ecutwfc=40.0,
    ecutrho=480.d0,
    nbnd=500,nosym=.true.,
    occupations='smearing', smearing='marzari-vanderbilt', degauss=0.01
 /
 &electrons
    conv_thr = 1.0D-5
    mixing_beta = 0.7
 /
ATOMIC_SPECIES
C  12.0107  C.pbe-n-rrkjus_psl.0.1.UPF
H  1.00794  H.pbe-rrkjus_psl.0.1.UPF
ATOMIC_POSITIONS (Angstrom)
C	5.0000000000	7.6214700937	7.1000063062	
C	5.0000000000	7.6214700937	11.3600060272	
C	5.0000000000	8.8512298465	3.5499945199	
C	5.0000000000	8.8512298465	7.8099944949	
C	5.0000000000	8.8512298465	12.0699952316	
C	5.0000000000	7.6214700937	5.6799943805	
C	5.0000000000	7.6214700937	9.9399951172	
C	5.0000000000	10.0809895992	2.8400058234	
C	5.0000000000	10.0809895992	7.1000063062	
C	5.0000000000	10.0809895992	11.3600060272	
C	5.0000000000	10.0809895992	15.6200062561	
C	5.0000000000	11.3107198477	3.5499945199	
C	5.0000000000	11.3107198477	7.8099944949	
C	5.0000000000	11.3107198477	12.0699952316	
C	5.0000000000	11.3107198477	16.3299954605	
C	5.0000000000	8.8512298465	4.9700061917	
C	5.0000000000	8.8512298465	9.2300059128	
C	5.0000000000	8.8512298465	13.4900061417	
C	5.0000000000	10.0809895992	1.4199994838	
C	5.0000000000	10.0809895992	5.6799943805	
C	5.0000000000	10.0809895992	9.9399951172	
C	5.0000000000	10.0809895992	14.1999953461	
C	5.0000000000	12.5404796004	2.8400058234	
C	5.0000000000	12.5404796004	7.1000063062	
C	5.0000000000	12.5404796004	11.3600060272	
C	5.0000000000	12.5404796004	15.6200062561	
C	5.0000000000	13.7702402472	3.5499945199	
C	5.0000000000	13.7702402472	7.8099944949	
C	5.0000000000	13.7702402472	12.0699952316	
C	5.0000000000	13.7702402472	16.3299954605	
C	5.0000000000	11.3107198477	0.7100006306	
C	5.0000000000	11.3107198477	4.9700061917	
C	5.0000000000	11.3107198477	9.2300059128	
C	5.0000000000	11.3107198477	13.4900061417	
C	5.0000000000	12.5404796004	1.4199994838	
C	5.0000000000	12.5404796004	5.6799943805	
C	5.0000000000	12.5404796004	9.9399951172	
C	5.0000000000	12.5404796004	14.1999953461	
C	5.0000000000	15.0000000000	2.8400058234	
C	5.0000000000	15.0000000000	7.1000063062	
C	5.0000000000	15.0000000000	11.3600060272	
C	5.0000000000	15.0000000000	15.6200062561	
C	5.0000000000	16.2297606468	3.5499945199	
C	5.0000000000	16.2297606468	7.8099944949	
C	5.0000000000	16.2297606468	12.0699952316	
C	5.0000000000	16.2297606468	16.3299954605	
C	5.0000000000	13.7702402472	0.7100006306	
C	5.0000000000	13.7702402472	4.9700061917	
C	5.0000000000	13.7702402472	9.2300059128	
C	5.0000000000	13.7702402472	13.4900061417	
C	5.0000000000	15.0000000000	1.4199994838	
C	5.0000000000	15.0000000000	5.6799943805	
C	5.0000000000	15.0000000000	9.9399951172	
C	5.0000000000	15.0000000000	14.1999953461	
C	5.0000000000	17.4595195055	2.8400058234	
C	5.0000000000	17.4595195055	7.1000063062	
C	5.0000000000	17.4595195055	11.3600060272	
C	5.0000000000	17.4595195055	15.6200062561	
C	5.0000000000	18.6892801523	3.5499945199	
C	5.0000000000	18.6892801523	7.8099944949	
C	5.0000000000	18.6892801523	12.0699952316	
C	5.0000000000	18.6892801523	16.3299954605	
C	5.0000000000	16.2297606468	0.7100006306	
C	5.0000000000	16.2297606468	4.9700061917	
C	5.0000000000	16.2297606468	9.2300059128	
C	5.0000000000	16.2297606468	13.4900061417	
C	5.0000000000	17.4595195055	1.4199994838	
C	5.0000000000	17.4595195055	5.6799943805	
C	5.0000000000	17.4595195055	9.9399951172	
C	5.0000000000	17.4595195055	14.1999953461	
C	5.0000000000	19.9190104008	2.8400058234	
C	5.0000000000	19.9190104008	7.1000063062	
C	5.0000000000	19.9190104008	11.3600060272	
C	5.0000000000	19.9190104008	15.6200062561	
C	5.0000000000	21.1487692595	3.5499945199	
C	5.0000000000	21.1487692595	7.8099944949	
C	5.0000000000	21.1487692595	12.0699952316	
C	5.0000000000	18.6892801523	0.7100006306	
C	5.0000000000	18.6892801523	4.9700061917	
C	5.0000000000	18.6892801523	9.2300059128	
C	5.0000000000	18.6892801523	13.4900061417	
C	5.0000000000	19.9190104008	1.4199994838	
C	5.0000000000	19.9190104008	5.6799943805	
C	5.0000000000	19.9190104008	9.9399951172	
C	5.0000000000	19.9190104008	14.1999953461	
C	5.0000000000	22.3785299063	7.1000063062	
C	5.0000000000	22.3785299063	11.3600060272	
C	5.0000000000	21.1487692595	4.9700061917	
C	5.0000000000	21.1487692595	9.2300059128	
C	5.0000000000	21.1487692595	13.4900061417	
C	5.0000000000	22.3785299063	5.6799943805	
C	5.0000000000	22.3785299063	9.9399951172	
H	5.0000000000	6.6774898767	7.6449964530	
H	5.0000000000	6.6774898767	11.9049966819	
H	5.0000000000	6.6774898767	5.1350042336	
H	5.0000000000	6.6774898767	9.3950044625	
H	5.0000000000	23.3225101233	7.6449964530	
H	5.0000000000	23.3225101233	11.9049966819	
H	5.0000000000	23.3225101233	5.1350042336	
H	5.0000000000	23.3225101233	9.3950044625	
H	5.0000000000	7.9072496295	3.0050041192	
H	5.0000000000	9.1370102763	16.1649969108	
H	5.0000000000	7.9072496295	14.0349967963	
H	5.0000000000	9.1370102763	0.8750006404	
H	5.0000000000	20.8629906178	16.1649969108	
H	5.0000000000	22.0927494764	3.0050041192	
H	5.0000000000	20.8629906178	0.8750006404	
H	5.0000000000	22.0927494764	14.0349967963	
K_POINTS (automatic)
1 1 50 0 0 0
CELL_PARAMETERS cubic
10.000000   0.0000000   0.000000
 0.000000  30.0000000   0.000000
 0.000000   0.0000000   17.040000
