 &control
    calculation='nscf'
    pseudo_dir = '/home/zfwang/hp_home/MySoftware/qe-6.3/pseudo',
    outdir='/home/zfwang/scratch/GNRDATASET/AGNR/ANTI14-4-6_2'
    prefix='ANTI14-4-6_2'
    wf_collect = .true.
 /
 &system
    ibrav = 0,
    celldm(1) = 1.8897261249935,
    nat = 64,
    ntyp = 2,
    ecutwfc=40.0,
    ecutrho=480.d0,
    nbnd=500,nosym=.true.,
    occupations='smearing', smearing='marzari-vanderbilt', degauss=0.01
 /
 &electrons
    conv_thr = 1.0D-5
    mixing_beta = 0.7
 /
ATOMIC_SPECIES
C  12.0107  C.pbe-n-rrkjus_psl.0.1.UPF
H  1.00794  H.pbe-rrkjus_psl.0.1.UPF
ATOMIC_POSITIONS (Angstrom)
C	5.0000000000	7.0065902174	2.8399971902	
C	5.0000000000	7.0065902174	7.0999976730	
C	5.0000000000	8.2363504171	3.5500031531	
C	5.0000000000	8.2363504171	7.8100031281	
C	5.0000000000	7.0065902174	1.4200029117	
C	5.0000000000	7.0065902174	5.6800030136	
C	5.0000000000	9.4661101699	2.8399971902	
C	5.0000000000	9.4661101699	7.0999976730	
C	5.0000000000	10.6958404183	3.5500031531	
C	5.0000000000	10.6958404183	7.8100031281	
C	5.0000000000	8.2363504171	0.7099997419	
C	5.0000000000	8.2363504171	4.9699975586	
C	5.0000000000	9.4661101699	1.4200029117	
C	5.0000000000	9.4661101699	5.6800030136	
C	5.0000000000	11.9256001711	2.8399971902	
C	5.0000000000	11.9256001711	7.0999976730	
C	5.0000000000	13.1553599238	7.8100031281	
C	5.0000000000	10.6958404183	0.7099997419	
C	5.0000000000	10.6958404183	4.9699975586	
C	5.0000000000	11.9256001711	1.4200029117	
C	5.0000000000	11.9256001711	5.6800030136	
C	5.0000000000	14.3851196766	7.0999976730	
C	5.0000000000	15.6148803234	7.8100031281	
C	5.0000000000	13.1553599238	0.7099997419	
C	5.0000000000	14.3851196766	1.4200029117	
C	5.0000000000	16.8446391821	2.8399971902	
C	5.0000000000	16.8446391821	7.0999976730	
C	5.0000000000	18.0743998289	3.5500031531	
C	5.0000000000	18.0743998289	7.8100031281	
C	5.0000000000	15.6148803234	0.7099997419	
C	5.0000000000	16.8446391821	1.4200029117	
C	5.0000000000	16.8446391821	5.6800030136	
C	5.0000000000	19.3041604757	2.8399971902	
C	5.0000000000	19.3041604757	7.0999976730	
C	5.0000000000	20.5338907242	3.5500031531	
C	5.0000000000	20.5338907242	7.8100031281	
C	5.0000000000	18.0743998289	0.7099997419	
C	5.0000000000	18.0743998289	4.9699975586	
C	5.0000000000	19.3041604757	1.4200029117	
C	5.0000000000	19.3041604757	5.6800030136	
C	5.0000000000	21.7636495829	2.8399971902	
C	5.0000000000	21.7636495829	7.0999976730	
C	5.0000000000	22.9934102297	3.5500031531	
C	5.0000000000	22.9934102297	7.8100031281	
C	5.0000000000	20.5338907242	0.7099997419	
C	5.0000000000	20.5338907242	4.9699975586	
C	5.0000000000	21.7636495829	1.4200029117	
C	5.0000000000	21.7636495829	5.6800030136	
C	5.0000000000	22.9934102297	0.7099997419	
C	5.0000000000	22.9934102297	4.9699975586	
H	5.0000000000	6.0626100004	3.3849962241	
H	5.0000000000	6.0626100004	7.6449964530	
H	5.0000000000	6.0626100004	0.8750040682	
H	5.0000000000	6.0626100004	5.1350042336	
H	5.0000000000	23.9373904467	3.0050041192	
H	5.0000000000	23.9373904467	7.2650043481	
H	5.0000000000	23.9373904467	1.2549961097	
H	5.0000000000	23.9373904467	5.5149963386	
H	5.0000000000	12.8695803881	3.3849962241	
H	5.0000000000	12.8695803881	5.1350042336	
H	5.0000000000	14.3851196766	6.0099996053	
H	5.0000000000	14.3851196766	2.5100005986	
H	5.0000000000	15.9006607533	3.3849962241	
H	5.0000000000	15.9006607533	5.1350042336		
K_POINTS (automatic)
1 1 50 0 0 0
CELL_PARAMETERS cubic
10.000000   0.0000000   0.000000
 0.000000  30.0000000   0.000000
 0.000000   0.0000000   8.520000
