 &control
    calculation='relax'
    pseudo_dir = '/home/zfwang/hp_home/MySoftware/qe-6.3/pseudo'
    outdir='/home/zfwang/scratch/GNRDATASET/AGNR/ANTI14-6-6_1',
    prefix='ANTI14-6-6_1',
    tstress = .true.
    tprnfor = .true.
    etot_conv_thr = 1.0D-4,
    forc_conv_thr = 1.0D-3,
    wf_collect = .true.,
 /
 &system
    ibrav = 0,
    celldm(1) = 1.8897261249935,
    nat = 96,
    ntyp = 2,
    ecutwfc =40.d0
    ecutrho =480.d0
    occupations='smearing', smearing='marzari-vanderbilt', degauss=0.01
	nosym=.true
 /
 &electrons
    conv_thr = 1.0D-5
    mixing_beta = 0.7
 /
  &IONS
    ion_dynamics = 'bfgs'
	upscale = 1.0D4
	
 /
ATOMIC_SPECIES
C  12.0107  C.pbe-n-rrkjus_psl.0.1.UPF
H  1.00794  H.pbe-rrkjus_psl.0.1.UPF
ATOMIC_POSITIONS (Angstrom)
C	5.0000000000	7.0065902174	2.8399971053	
C	5.0000000000	7.0065902174	7.1000055224	
C	5.0000000000	7.0065902174	11.3600013708	
C	5.0000000000	8.2363504171	3.5500027612	
C	5.0000000000	8.2363504171	7.8099982287	
C	5.0000000000	8.2363504171	12.0699940770	
C	5.0000000000	7.0065902174	1.4199985526	
C	5.0000000000	7.0065902174	5.6799942105	
C	5.0000000000	7.0065902174	9.9400030086	
C	5.0000000000	9.4661101699	2.8399971053	
C	5.0000000000	9.4661101699	7.1000055224	
C	5.0000000000	9.4661101699	11.3600013708	
C	5.0000000000	10.6958404183	3.5500027612	
C	5.0000000000	10.6958404183	7.8099982287	
C	5.0000000000	10.6958404183	12.0699940770	
C	5.0000000000	8.2363504171	0.7100005618	
C	5.0000000000	8.2363504171	4.9700015043	
C	5.0000000000	8.2363504171	9.2299965909	
C	5.0000000000	9.4661101699	1.4199985526	
C	5.0000000000	9.4661101699	5.6799942105	
C	5.0000000000	9.4661101699	9.9400030086	
C	5.0000000000	11.9256001711	2.8399971053	
C	5.0000000000	11.9256001711	7.1000055224	
C	5.0000000000	11.9256001711	11.3600013708	
C	5.0000000000	13.1553599238	3.5500027612	
C	5.0000000000	13.1553599238	7.8099982287	
C	5.0000000000	13.1553599238	12.0699940770	
C	5.0000000000	10.6958404183	0.7100005618	
C	5.0000000000	10.6958404183	4.9700015043	
C	5.0000000000	10.6958404183	9.2299965909	
C	5.0000000000	11.9256001711	1.4199985526	
C	5.0000000000	11.9256001711	5.6799942105	
C	5.0000000000	11.9256001711	9.9400030086	
C	5.0000000000	14.3851196766	2.8399971053	
C	5.0000000000	14.3851196766	11.3600013708	
C	5.0000000000	15.6148803234	3.5500027612	
C	5.0000000000	15.6148803234	12.0699940770	
C	5.0000000000	13.1553599238	0.7100005618	
C	5.0000000000	13.1553599238	4.9700015043	
C	5.0000000000	13.1553599238	9.2299965909	
C	5.0000000000	14.3851196766	1.4199985526	
C	5.0000000000	14.3851196766	9.9400030086	
C	5.0000000000	16.8446391821	2.8399971053	
C	5.0000000000	16.8446391821	11.3600013708	
C	5.0000000000	18.0743998289	3.5500027612	
C	5.0000000000	18.0743998289	7.8099982287	
C	5.0000000000	18.0743998289	12.0699940770	
C	5.0000000000	15.6148803234	0.7100005618	
C	5.0000000000	15.6148803234	9.2299965909	
C	5.0000000000	16.8446391821	1.4199985526	
C	5.0000000000	16.8446391821	9.9400030086	
C	5.0000000000	19.3041604757	2.8399971053	
C	5.0000000000	19.3041604757	7.1000055224	
C	5.0000000000	19.3041604757	11.3600013708	
C	5.0000000000	20.5338907242	3.5500027612	
C	5.0000000000	20.5338907242	7.8099982287	
C	5.0000000000	20.5338907242	12.0699940770	
C	5.0000000000	18.0743998289	0.7100005618	
C	5.0000000000	18.0743998289	4.9700015043	
C	5.0000000000	18.0743998289	9.2299965909	
C	5.0000000000	19.3041604757	1.4199985526	
C	5.0000000000	19.3041604757	5.6799942105	
C	5.0000000000	19.3041604757	9.9400030086	
C	5.0000000000	21.7636495829	2.8399971053	
C	5.0000000000	21.7636495829	7.1000055224	
C	5.0000000000	21.7636495829	11.3600013708	
C	5.0000000000	22.9934102297	3.5500027612	
C	5.0000000000	22.9934102297	7.8099982287	
C	5.0000000000	22.9934102297	12.0699940770	
C	5.0000000000	20.5338907242	0.7100005618	
C	5.0000000000	20.5338907242	4.9700015043	
C	5.0000000000	20.5338907242	9.2299965909	
C	5.0000000000	21.7636495829	1.4199985526	
C	5.0000000000	21.7636495829	5.6799942105	
C	5.0000000000	21.7636495829	9.9400030086	
C	5.0000000000	22.9934102297	0.7100005618	
C	5.0000000000	22.9934102297	4.9700015043	
C	5.0000000000	22.9934102297	9.2299965909	
H	5.0000000000	6.0626100004	3.3850002881	
H	5.0000000000	6.0626100004	7.6449961364	
H	5.0000000000	6.0626100004	11.9050041727	
H	5.0000000000	6.0626100004	0.8750006068	
H	5.0000000000	6.0626100004	5.1350039774	
H	5.0000000000	6.0626100004	9.3949994449	
H	5.0000000000	23.9373904467	3.0049997688	
H	5.0000000000	23.9373904467	7.2649954267	
H	5.0000000000	23.9373904467	11.5250034630	
H	5.0000000000	23.9373904467	1.2549997930	
H	5.0000000000	23.9373904467	5.5150043062	
H	5.0000000000	23.9373904467	9.7750001546	
H	5.0000000000	14.0993401408	7.2649954267	
H	5.0000000000	15.6148803234	4.6399961772	
H	5.0000000000	14.0993401408	5.5150043062	
H	5.0000000000	17.1304196119	7.2649954267	
H	5.0000000000	15.6148803234	8.1400039367	
H	5.0000000000	17.1304196119	5.5150043062	
K_POINTS (automatic)
1 1 10 0 0 0
CELL_PARAMETERS cubic
10.000000   0.0000000   0.000000
 0.000000  30.0000000   0.000000
 0.000000   0.0000000   12.780000
