 &bands
       prefix='ANTI13-6-6',
       outdir='/home/zfwang/scratch/GNRDATASET/AGNR/ANTI13-6-6',
       filband='bands_ANTI13-6-6.dat',
       lsym=.true.,
 /
