 &control
    calculation='relax'
    pseudo_dir = '/home/zfwang/hp_home/MySoftware/qe-6.3/pseudo'
    outdir='/home/zfwang/scratch/GNRDATASET/AGNR/ANTI13-4-6',
    prefix='ANTI13-4-6',
    tstress = .true.
    tprnfor = .true.
    etot_conv_thr = 1.0D-4,
    forc_conv_thr = 1.0D-3,
    wf_collect = .true.,
 /
 &system
    ibrav = 0,
    celldm(1) = 1.8897261249935,
    nat = 60,
    ntyp = 2,
    ecutwfc =40.d0
    ecutrho =480.d0
    occupations='smearing', smearing='marzari-vanderbilt', degauss=0.01
	nosym=.true
 /
 &electrons
    conv_thr = 1.0D-5
    mixing_beta = 0.7
 /
  &IONS
    ion_dynamics = 'bfgs'
	upscale = 1.0D4
	
 /
ATOMIC_SPECIES
C  12.0107  C.pbe-n-rrkjus_psl.0.1.UPF
H  1.00794  H.pbe-rrkjus_psl.0.1.UPF
ATOMIC_POSITIONS (Angstrom)
C        5.000000484   7.634583419   2.813866616
C        5.000000762   8.836524323   3.544715807
C        4.999999749   7.633929479   1.446227730
C        5.000000260  10.063267904   2.837985439
C        5.000000355  11.302221995   3.539802662
C        4.999999694   8.835647194   0.713147651
C        4.999999751  10.067780440   1.418680643
C        5.000000508  12.484737658   2.812677527
C        4.999999346  11.298171921   0.707597104
C        4.999999968  12.522149325   1.426053186
C        5.000000029  13.777313913   0.709082866
C        5.000000208  14.999986360   1.367457069
C        5.000000113  17.515261130   2.812678182
C        5.000000149  18.697788553   3.539799969
C        5.000000454  16.222663056   0.709091418
C        5.000000518  17.477836572   1.426054245
C        4.999999855  19.936737779   2.837988552
C        4.999999599  21.163487272   3.544713879
C        5.000000083  18.701820594   0.707598773
C        4.999999603  19.932226206   1.418682337
C        4.999999155  22.365436292   2.813891299
C        4.999999263  21.164353186   0.713133325
C        4.999999323  22.366091368   1.446211120
H        5.000000196   6.682608932   3.335032044
H        5.000000153   6.680699279   0.925507445
H        4.999999588  23.317398984   3.335033998
H        5.000000079  23.319304552   0.925512328
C        5.000000830   7.633929711   7.073771749
C        5.000000183   8.835645564   7.806855570
C        5.000000934   7.634583600   5.706137368
C        4.999999938  10.067780240   7.101319932
C        4.999998820  11.298170685   7.812405849
C        5.000001149   8.836523675   4.975284389
C        5.000000587  10.063268997   5.682015669
C        4.999998916  12.522147272   7.093947925
C        4.999999935  13.777315219   7.810914705
C        4.999999989  11.302222009   4.980195735
C        4.999998968  12.484737585   5.707322874
C        5.000000347  14.999984651   7.152541555
C        5.000000560  16.222663232   7.810905797
C        5.000000177  17.477837083   7.093945866
C        4.999999698  18.701821441   7.812402254
C        4.999999868  17.515262001   5.707321113
C        4.999999135  19.932226536   7.101318950
C        4.999998951  21.164352739   7.806867420
C        4.999999991  18.697786714   4.980198526
C        4.999999589  19.936736662   5.682010174
C        4.999999623  22.366091822   7.073791568
C        4.999999570  21.163487763   4.975287410
C        4.999999725  22.365435522   5.706108202
H        5.000000597   6.680699790   7.594494838
H        5.000000557   6.682608912   5.184969398
H        5.000000305  23.319302397   7.594488149
H        5.000000378  23.317398025   5.184968280
H        5.000000335  13.425510031   3.351564299
H        5.000000032  14.999965666   2.448797146
H        5.000000446  16.574503580   3.351568098
H        4.999999792  13.425510635   5.168437204
H        5.000000586  14.999964898   6.071200348
H        5.000000247  16.574501474   5.168432734
K_POINTS (automatic)
1 1 10 0 0 0
CELL_PARAMETERS cubic
10.000000   0.0000000   0.000000
 0.000000  30.0000000   0.000000
 0.000000   0.0000000   8.520000
