 &control
    calculation='nscf'
    pseudo_dir = '/home/zfwang/hp_home/MySoftware/qe-6.3/pseudo',
    outdir='/home/zfwang/scratch/GNRDATASET/AGNR/ANTI13-6-6'
    prefix='ANTI13-6-6'
    wf_collect = .true.
 /
 &system
    ibrav = 0,
    celldm(1) = 1.8897261249935,
    nat = 90,
    ntyp = 2,
    ecutwfc=40.0,
    ecutrho=480.d0,
    nbnd=500,nosym=.true.,
    occupations='smearing', smearing='marzari-vanderbilt', degauss=0.01
 /
 &electrons
    conv_thr = 1.0D-5
    mixing_beta = 0.7
 /
ATOMIC_SPECIES
C  12.0107  C.pbe-n-rrkjus_psl.0.1.UPF
H  1.00794  H.pbe-rrkjus_psl.0.1.UPF
ATOMIC_POSITIONS (Angstrom)
C        5.000000043   7.632997606   0.683177881
C        5.000000370   8.837947108   1.415509726
C        5.000000308  10.068800055   0.711033188
C        5.000000030  11.301952864   1.418994181
C        5.000000315  12.533610867   0.708474158
C        5.000000523  13.767640363   1.413535779
C        5.000000226  14.999995756   0.712560939
C        5.000000195  16.232355874   1.413530375
C        5.000000061  17.466390152   0.708480505
C        5.000000080  18.698052394   1.418995707
C        5.000000056  19.931207524   0.711032252
C        4.999999949  21.162054500   1.415508867
C        5.000000079  22.366998127   0.683184114
C        5.000000112   7.635918929   4.943104814
C        5.000000282   8.836537202   5.674232194
C        5.000000408   7.634067136   3.575512827
C        5.000000472  10.061704077   4.967885887
C        5.000000260  11.301023484   5.669003251
C        5.000000442   8.835222372   2.842540270
C        5.000000489  10.066668546   3.548299393
C        5.000000243  12.481894587   4.943023992
C        5.000000191  11.297712182   2.834869482
C        5.000000215  12.522214664   3.553777389
C        5.000000542  13.776461009   2.834857457
C        5.000000706  14.999999513   3.494590627
C        4.999999930  17.518105172   4.943024992
C        4.999999931  18.698972858   5.669002485
C        5.000000545  16.223537880   2.834858985
C        5.000000263  17.477785562   3.553783047
C        4.999999716  19.938298910   4.967885771
C        4.999999715  21.163465397   5.674236152
C        5.000000042  18.702291403   2.834863911
C        4.999999623  19.933331423   3.548305422
C        4.999999696  22.364076358   4.943107061
C        4.999999519  21.164784161   2.842535658
C        4.999999569  22.365931423   3.575516633
C        5.000000039   7.634067788   9.204487010
C        5.000000231   8.835221699   9.937460033
C        4.999999901   7.635919487   7.836894798
C        5.000000188  10.066669041   9.231700269
C        4.999999889  11.297712017   9.945130820
C        5.000000297   8.836537415   7.105767252
C        5.000000389  10.061703482   7.812113355
C        4.999999744  12.522213726   9.226222302
C        4.999999835  13.776461792   9.945142586
C        5.000000148  11.301024102   7.110996507
C        4.999999855  12.481893897   7.836976151
C        4.999999937  14.999999015   9.285410343
C        4.999999895  16.223537367   9.945141103
C        4.999999778  17.477785843   9.226215752
C        4.999999482  18.702291733   9.945136611
C        4.999999982  17.518105377   7.836975392
C        4.999999676  19.933332067   9.231693844
C        4.999999559  21.164784523   9.937463799
C        4.999999781  18.698972757   7.110996105
C        4.999999682  19.938299320   7.812113591
C        4.999999769  22.365931358   9.204482748
C        4.999999706  21.163465405   7.105762596
C        4.999999781  22.364077141   7.836891561
C        4.999999855   7.632997940  12.096821926
C        5.000000055   8.837946922  11.364490197
C        5.000000170  10.068799573  12.068967175
C        5.000000119  11.301952505  11.361005720
C        5.000000246  12.533611206  12.071526704
C        5.000000069  13.767640138  11.366465583
C        5.000000166  14.999995787  12.067440343
C        4.999999910  16.232355754  11.366471067
C        4.999999882  17.466390322  12.071520872
C        4.999999699  18.698052944  11.361005268
C        4.999999917  19.931207059  12.068968407
C        4.999999840  21.162054534  11.364491833
C        5.000000094  22.366998371  12.096816727
H        4.999999599   6.679489257  11.577092997
H        5.000000032  23.320513084  11.577093436
H        4.999999863  13.422736623   5.481445720
H        5.000000302  15.000008005   4.577950507
H        4.999999784  16.577255947   5.481448544
H        4.999999659  13.422736726   7.298554148
H        4.999999569  15.000007889   8.202049113
H        4.999999913  16.577255227   7.298550677
H        4.999999637   6.679489556   1.202906072
H        5.000000102  23.320512913   1.202907114
H        4.999999879   6.684131484   5.462753123
H        4.999999922   6.680724804   3.056290724
H        4.999999874  23.315864100   5.462749612
H        4.999999544  23.319269258   3.056290149
H        5.000000138   6.680725552   9.723709220
H        4.999999848   6.684131403   7.317246725
H        4.999999647  23.319269826   9.723708898
H        4.999999969  23.315864360   7.317249591
K_POINTS (automatic)
1 1 50 0 0 0
CELL_PARAMETERS cubic
10.000000   0.0000000   0.000000
 0.000000  30.0000000   0.000000
 0.000000   0.0000000   12.780000
