 &bands
       prefix='ANTI13-4-6',
       outdir='/home/zfwang/scratch/GNRDATASET/AGNR/ANTI13-4-6',
       filband='bands_ANTI13-4-6.dat',
       lsym=.true.,
 /
