 &control
    calculation='relax'
    pseudo_dir = '/home/zfwang/hp_home/MySoftware/qe-6.3/pseudo'
    outdir='/home/zfwang/scratch/GNRDATASET/AGNR/ANTI13-8-6',
    prefix='ANTI13-8-6',
    tstress = .true.
    tprnfor = .true.
    etot_conv_thr = 1.0D-4,
    forc_conv_thr = 1.0D-3,
    wf_collect = .true.,
 /
 &system
    ibrav = 0,
    celldm(1) = 1.8897261249935,
    nat = 120,
    ntyp = 2,
    ecutwfc =40.d0
    ecutrho =480.d0
    occupations='smearing', smearing='marzari-vanderbilt', degauss=0.01
	nosym=.true
 /
 &electrons
    conv_thr = 1.0D-5
    mixing_beta = 0.7
 /
  &IONS
    ion_dynamics = 'bfgs'
	upscale = 1.0D4
	
 /
ATOMIC_SPECIES
C  12.0107  C.pbe-n-rrkjus_psl.0.1.UPF
H  1.00794  H.pbe-rrkjus_psl.0.1.UPF
ATOMIC_POSITIONS (Angstrom)
C     4.999995e+00  7.621496e+00  1.562000e+01    
C     4.999995e+00  8.851253e+00  1.633000e+01    
C     4.999995e+00  7.621496e+00  1.419999e+00    
C     4.999995e+00  1.008101e+01  1.562000e+01    
C     4.999995e+00  1.131077e+01  1.633000e+01    
C     4.999995e+00  8.851253e+00  7.100005e-01    
C     4.999995e+00  1.008101e+01  1.419999e+00    
C     4.999995e+00  1.254053e+01  1.562000e+01    
C     4.999995e+00  1.377028e+01  1.633000e+01    
C     4.999995e+00  1.131077e+01  7.100005e-01    
C     4.999995e+00  1.254053e+01  1.419999e+00    
C     4.999995e+00  1.500004e+01  1.562000e+01    
C     4.999995e+00  1.622980e+01  1.633000e+01    
C     4.999995e+00  1.377028e+01  7.100005e-01    
C     4.999995e+00  1.500004e+01  1.419999e+00    
C     4.999995e+00  1.745955e+01  1.562000e+01    
C     4.999995e+00  1.868931e+01  1.633000e+01    
C     4.999995e+00  1.622980e+01  7.100005e-01    
C     4.999995e+00  1.745955e+01  1.419999e+00    
C     4.999995e+00  1.991907e+01  1.562000e+01    
C     4.999995e+00  2.114882e+01  1.633000e+01    
C     4.999995e+00  1.868931e+01  7.100005e-01    
C     4.999995e+00  1.991907e+01  1.419999e+00    
C     4.999995e+00  2.237858e+01  1.562000e+01    
C     4.999995e+00  2.114882e+01  7.100005e-01    
C     4.999995e+00  2.237858e+01  1.419999e+00    
H     4.999995e+00  6.677530e+00  1.616500e+01    
H     4.999995e+00  6.677530e+00  8.749995e-01    
H     4.999995e+00  2.332255e+01  1.616500e+01    
H     4.999995e+00  2.332255e+01  8.749995e-01    
C     4.999995e+00  7.607706e+00  2.812147e+00    
C     4.999998e+00  8.814443e+00  3.543409e+00    
C     4.999989e+00  1.004881e+01  2.840954e+00    
C     4.999990e+00  1.128587e+01  3.547120e+00    
C     4.999981e+00  1.252310e+01  2.838085e+00    
C     4.999980e+00  1.376252e+01  3.544085e+00    
C     4.999975e+00  1.500001e+01  2.842715e+00    
C     4.999970e+00  1.623753e+01  3.544035e+00    
C     4.999977e+00  1.747700e+01  2.838157e+00    
C     4.999989e+00  1.871424e+01  3.547166e+00    
C     5.000002e+00  1.995134e+01  2.841011e+00    
C     5.000020e+00  2.118570e+01  3.543446e+00    
C     5.000015e+00  2.239242e+01  2.812293e+00    
C     5.000009e+00  7.599616e+00  7.070106e+00    
C     5.000008e+00  8.801942e+00  7.802962e+00    
C     5.000011e+00  7.603380e+00  5.701616e+00    
C     5.000011e+00  1.003265e+01  7.096733e+00    
C     5.000008e+00  1.127456e+01  7.798266e+00    
C     5.000008e+00  8.808487e+00  4.970315e+00    
C     5.000010e+00  1.004254e+01  5.675001e+00    
C     5.000004e+00  1.246012e+01  7.071692e+00    
C     5.000001e+00  1.128000e+01  4.963048e+00    
C     4.999998e+00  1.250874e+01  5.682068e+00    
C     4.999984e+00  1.377096e+01  4.966343e+00    
C     4.999975e+00  1.500004e+01  5.626339e+00    
C     4.999979e+00  1.753994e+01  7.071711e+00    
C     5.000001e+00  1.872549e+01  7.798315e+00    
C     4.999968e+00  1.622912e+01  4.966356e+00    
C     4.999976e+00  1.749134e+01  5.682030e+00    
C     5.000021e+00  1.996743e+01  7.096744e+00    
C     5.000026e+00  2.119810e+01  7.803018e+00    
C     4.999994e+00  1.872008e+01  4.963030e+00    
C     5.000018e+00  1.995758e+01  5.675042e+00    
C     5.000028e+00  2.240042e+01  7.070157e+00    
C     5.000031e+00  2.119160e+01  4.970326e+00    
C     5.000034e+00  2.239666e+01  5.701649e+00    
C     4.999985e+00  7.603398e+00  1.133842e+01    
C     4.999983e+00  8.808503e+00  1.206967e+01    
C     4.999989e+00  7.599613e+00  9.969867e+00    
C     4.999983e+00  1.004254e+01  1.136500e+01    
C     4.999978e+00  1.128000e+01  1.207694e+01    
C     4.999997e+00  8.801950e+00  9.237034e+00    
C     4.999992e+00  1.003265e+01  9.943231e+00    
C     4.999984e+00  1.250874e+01  1.135791e+01    
C     4.999984e+00  1.377097e+01  1.207365e+01    
C     4.999999e+00  1.127457e+01  9.241704e+00    
C     4.999996e+00  1.246011e+01  9.968278e+00    
C     4.999988e+00  1.500004e+01  1.141364e+01    
C     4.999989e+00  1.622912e+01  1.207364e+01    
C     4.999992e+00  1.749135e+01  1.135796e+01    
C     4.999993e+00  1.872008e+01  1.207698e+01    
C     4.999992e+00  1.753995e+01  9.968272e+00    
C     4.999996e+00  1.995757e+01  1.136497e+01    
C     4.999990e+00  2.119158e+01  1.206968e+01    
C     5.000001e+00  1.872548e+01  9.241666e+00    
C     5.000005e+00  1.996743e+01  9.943232e+00    
C     4.999984e+00  2.239664e+01  1.133840e+01    
C     5.000013e+00  2.119810e+01  9.236989e+00    
C     4.999996e+00  2.240042e+01  9.969831e+00    
C     4.999989e+00  7.607717e+00  1.422785e+01    
C     4.999983e+00  8.814455e+00  1.349660e+01    
C     4.999981e+00  1.004882e+01  1.419906e+01    
C     4.999975e+00  1.128587e+01  1.349288e+01    
C     4.999977e+00  1.252310e+01  1.420192e+01    
C     4.999980e+00  1.376252e+01  1.349590e+01    
C     4.999981e+00  1.500001e+01  1.419729e+01    
C     4.999985e+00  1.623752e+01  1.349596e+01    
C     4.999983e+00  1.747700e+01  1.420186e+01    
C     4.999989e+00  1.871424e+01  1.349285e+01    
C     4.999994e+00  1.995133e+01  1.419902e+01    
C     4.999993e+00  2.118569e+01  1.349657e+01    
C     4.999999e+00  2.239240e+01  1.422771e+01    
H     4.999992e+00  6.652159e+00  1.371072e+01    
H     4.999994e+00  2.334793e+01  1.371075e+01    
H     5.000002e+00  1.339827e+01  7.614914e+00    
H     4.999982e+00  1.500006e+01  6.711130e+00    
H     4.999966e+00  1.660175e+01  7.614845e+00    
H     5.000007e+00  1.339829e+01  9.425072e+00    
H     4.999987e+00  1.500008e+01  1.032884e+01    
H     4.999984e+00  1.660174e+01  9.425153e+00    
H     4.999996e+00  6.652139e+00  3.329249e+00    
H     5.000023e+00  2.334795e+01  3.329221e+00    
H     5.000007e+00  6.641596e+00  7.583911e+00    
H     5.000010e+00  6.646915e+00  5.186060e+00    
H     5.000014e+00  2.335840e+01  7.583964e+00    
H     5.000029e+00  2.335307e+01  5.186071e+00    
H     4.999986e+00  6.646939e+00  1.185396e+01    
H     4.999989e+00  6.641596e+00  9.456114e+00    
H     4.999968e+00  2.335305e+01  1.185397e+01    
H     4.999990e+00  2.335840e+01  9.456076e+00  
K_POINTS (automatic)
1 1 10 0 0 0
CELL_PARAMETERS cubic
10.000000   0.0000000   0.000000
 0.000000  30.0000000   0.000000
 0.000000   0.0000000   17.040000
