 &bands
       prefix='ANTI14-6-6_2',
       outdir='/home/zfwang/scratch/GNRDATASET/AGNR/ANTI14-6-6_2',
       filband='bands_ANTI14-6-6_2.dat',
       lsym=.true.,
 /
