 &bands
       prefix='ANTI14-4-6_1',
       outdir='/home/zfwang/scratch/GNRDATASET/AGNR/ANTI14-4-6_1',
       filband='bands_ANTI14-4-6_1.dat',
       lsym=.true.,
 /
