 &bands
       prefix='ANTI14-6-12_1',
       outdir='/home/zfwang/scratch/GNRDATASET/AGNR/ANTI14-6-12_1',
       filband='bands_ANTI14-6-12_1.dat',
       lsym=.true.,
 /
