 &control
    calculation='nscf'
    pseudo_dir = '/home/zfwang/hp_home/MySoftware/qe-6.3/pseudo',
    outdir='/home/zfwang/scratch/GNRDATASET/AGNR/ANTI13-6-12'
    prefix='ANTI13-6-12'
    wf_collect = .true.
 /
 &system
    ibrav = 0,
    celldm(1) = 1.8897261249935,
    nat = 90,
    ntyp = 2,
    ecutwfc=40.0,
    ecutrho=480.d0,
    nbnd=500,nosym=.true.,
    occupations='smearing', smearing='marzari-vanderbilt', degauss=0.01
 /
 &electrons
    conv_thr = 1.0D-5
    mixing_beta = 0.7
 /
ATOMIC_SPECIES
C  12.0107  C.pbe-n-rrkjus_psl.0.1.UPF
H  1.00794  H.pbe-rrkjus_psl.0.1.UPF
ATOMIC_POSITIONS (Angstrom)
C        4.999999093   7.393331278   0.680972989
C        4.999999276   8.602102839   1.397788317
C        4.999999349   9.852427429   0.706457913
C        5.000000397  11.109425328   1.410530777
C        5.000000142  12.385170167   0.705873955
C        4.999999550  13.675062523   1.361168586
C        4.999999365  15.000000933   0.696230129
C        4.999999317  16.324939142   1.361168809
C        4.999998618  17.614831896   0.705874396
C        4.999998819  18.890576470   1.410530839
C        4.999999613  20.147574895   0.706457986
C        5.000000324  21.397899409   1.397789059
C        5.000001109  22.606670296   0.680973468
C        5.000000259   7.243253110   4.901657815
C        5.000000858   8.424873667   5.667626564
C        4.999999823   7.321846058   3.536415554
C        5.000001667   9.647764196   4.946860711
C        5.000001840  10.783052795   5.728129680
C        5.000000175   8.560631582   2.826653175
C        5.000001299   9.771638160   3.530655039
C        5.000001333  11.058942447   2.827303188
C        5.000000854  12.342067236   3.398482595
C        4.999998942  13.526018283   2.737091284
C        5.000002250  19.216949041   5.728132357
C        5.000000082  16.473983494   2.737091877
C        4.999998654  17.657934105   3.398481622
C        5.000001192  20.352237899   4.946861198
C        5.000000809  21.575127831   5.667626434
C        4.999998719  18.941059855   2.827302643
C        5.000000059  20.228362943   3.530655299
C        5.000000492  22.756748444   4.901658148
C        5.000000391  21.439369499   2.826653875
C        5.000000856  22.678155469   3.536415716
C        4.999999546   7.321845813   9.243584581
C        4.999999195   8.560631890   9.953346745
C        5.000000588   7.243253869   7.878342628
C        4.999999541   9.771639164   9.249344650
C        4.999999361  11.058941725   9.952700073
C        5.000000702   8.424873722   7.112374327
C        5.000000268   9.647765124   7.833138117
C        4.999999294  12.342064991   9.381518687
C        4.999998342  13.526020651  10.042912016
C        5.000000512  10.783050323   7.051866943
C        5.000001153  16.473980502  10.042912800
C        4.999999241  17.657936431   9.381517606
C        4.999998959  18.941058626   9.952699393
C        4.999999666  20.228362255   9.249345288
C        4.999999623  21.439368798   9.953347109
C        5.000001222  19.216951160   7.051867427
C        4.999999983  20.352235046   7.833138636
C        4.999999453  22.678154700   9.243583705
C        5.000000395  21.575127261   7.112373998
C        4.999999965  22.756746863   7.878342635
C        4.999998806   7.393329343  12.099025048
C        4.999999004   8.602100984  11.382210807
C        4.999998902   9.852425557  12.073543150
C        4.999999269  11.109422845  11.369469628
C        4.999999692  12.385169357  12.074126871
C        4.999999236  13.675061544  11.418831100
C        4.999999719  15.000000258  12.083771202
C        5.000000108  16.324939544  11.418831209
C        4.999999261  17.614831216  12.074127425
C        4.999999346  18.890577972  11.369469422
C        4.999999811  20.147574816  12.073542696
C        5.000000035  21.397900520  11.382211360
C        5.000000747  22.606670975  12.099026653
H        4.999999584   6.438702926   1.203826446
H        5.000001335  23.561300152   1.203825275
H        5.000000098   6.271161575   5.389366088
H        4.999999204   6.385847067   2.985855775
H        5.000002087  11.753219890   5.343706304
H        5.000001178  12.578751594   4.431205435
H        4.999996577  14.340575580   3.420340254
H        5.000004152  18.246783184   5.343709057
H        5.000002139  15.659425581   3.420341491
H        4.999997358  17.421248496   4.431203559
H        5.000000381  23.728838889   5.389367916
H        5.000001313  23.614154641   2.985856583
H        4.999999175   6.385844617   9.794140377
H        5.000000622   6.271165492   7.390628359
H        5.000000055  12.578753115   8.348800658
H        4.999996508  14.340574220   9.359658502
H        4.999999368  11.753219006   7.436284370
H        5.000004221  15.659427191   9.359659860
H        4.999998595  17.421250207   8.348798691
H        5.000001846  18.246780529   7.436287308
H        4.999998638  23.614155099   9.794140847
H        4.999999773  23.728836696   7.390629150
H        4.999998541   6.438698505  11.576176456
H        5.000000780  23.561301357  11.576174832
K_POINTS (automatic)
1 1 50 0 0 0
CELL_PARAMETERS cubic
10.000000   0.0000000   0.000000
 0.000000  30.0000000   0.000000
 0.000000   0.0000000   12.780000
