 &bands
       prefix='V9_1',
       outdir='/home/zfwang/scratch/GNRDATASET/AGNR/V9_1',
       filband='bands_V9_1.dat',
       lsym=.true.,
 /
