 &control
    calculation='relax'
    pseudo_dir = '/home/zfwang/hp_home/MySoftware/qe-6.3/pseudo'
    outdir='/home/zfwang/scratch/GNRDATASET/AGNR/V9_1',
    prefix='V9_1',
    tstress = .true.
    tprnfor = .true.
    etot_conv_thr = 1.0D-4,
    forc_conv_thr = 1.0D-3,
    wf_collect = .true.,
 /
 &system
    ibrav = 0,
    celldm(1) = 1.8897261249935,
    nat = 108,
    ntyp = 2,
    ecutwfc =40.d0
    ecutrho =480.d0
    occupations='smearing', smearing='marzari-vanderbilt', degauss=0.01
	nosym=.true
 /
 &electrons
    conv_thr = 1.0D-5
    mixing_beta = 0.7
 /
  &IONS
    ion_dynamics = 'bfgs'
	upscale = 1.0D4
	
 /
ATOMIC_SPECIES
C  12.0107  C.pbe-n-rrkjus_psl.0.1.UPF
H  1.00794  H.pbe-rrkjus_psl.0.1.UPF
ATOMIC_POSITIONS (Angstrom)
C	5.0000000000	6.0467115706	2.8684058816	
C	5.0000000000	6.0467115706	15.7762063187	
C	5.0000000000	7.2764709531	3.5854944651	
C	5.0000000000	7.2764709531	16.4932954151	
C	5.0000000000	6.0467115706	1.4341994786	
C	5.0000000000	6.0467115706	14.3419952996	
C	5.0000000000	8.5062307724	2.8684058816	
C	5.0000000000	8.5062307724	15.7762063187	
C	5.0000000000	9.7359613293	3.5854944651	
C	5.0000000000	9.7359613293	12.1906951839	
C	5.0000000000	9.7359613293	16.4932954151	
C	5.0000000000	7.2764709531	0.7171006369	
C	5.0000000000	7.2764709531	13.6249062031	
C	5.0000000000	8.5062307724	1.4341994786	
C	5.0000000000	8.5062307724	14.3419952996	
C	5.0000000000	10.9657207118	2.8684058816	
C	5.0000000000	10.9657207118	11.4736060875	
C	5.0000000000	10.9657207118	15.7762063187	
C	5.0000000000	12.1954800944	3.5854944651	
C	5.0000000000	12.1954800944	12.1906951839	
C	5.0000000000	12.1954800944	16.4932954151	
C	5.0000000000	9.7359613293	0.7171006369	
C	5.0000000000	9.7359613293	5.0197062536	
C	5.0000000000	9.7359613293	13.6249062031	
C	5.0000000000	10.9657207118	1.4341994786	
C	5.0000000000	10.9657207118	5.7367943243	
C	5.0000000000	10.9657207118	14.3419952996	
C	5.0000000000	13.4252403504	2.8684058816	
C	5.0000000000	13.4252403504	7.1710063693	
C	5.0000000000	13.4252403504	11.4736060875	
C	5.0000000000	13.4252403504	15.7762063187	
C	5.0000000000	14.6549997330	3.5854944651	
C	5.0000000000	14.6549997330	7.8880944398	
C	5.0000000000	14.6549997330	12.1906951839	
C	5.0000000000	14.6549997330	16.4932954151	
C	5.0000000000	12.1954800944	0.7171006369	
C	5.0000000000	12.1954800944	5.0197062536	
C	5.0000000000	12.1954800944	13.6249062031	
C	5.0000000000	13.4252403504	1.4341994786	
C	5.0000000000	13.4252403504	5.7367943243	
C	5.0000000000	13.4252403504	10.0393950684	
C	5.0000000000	13.4252403504	14.3419952996	
C	5.0000000000	15.8847599890	2.8684058816	
C	5.0000000000	15.8847599890	7.1710063693	
C	5.0000000000	15.8847599890	11.4736060875	
C	5.0000000000	15.8847599890	15.7762063187	
C	5.0000000000	17.1145184981	3.5854944651	
C	5.0000000000	17.1145184981	7.8880944398	
C	5.0000000000	17.1145184981	12.1906951839	
C	5.0000000000	14.6549997330	0.7171006369	
C	5.0000000000	14.6549997330	5.0197062536	
C	5.0000000000	14.6549997330	9.3223059719	
C	5.0000000000	14.6549997330	13.6249062031	
C	5.0000000000	15.8847599890	1.4341994786	
C	5.0000000000	15.8847599890	5.7367943243	
C	5.0000000000	15.8847599890	10.0393950684	
C	5.0000000000	15.8847599890	14.3419952996	
C	5.0000000000	18.3442787541	2.8684058816	
C	5.0000000000	18.3442787541	7.1710063693	
C	5.0000000000	18.3442787541	11.4736060875	
C	5.0000000000	19.5740390102	3.5854944651	
C	5.0000000000	19.5740390102	7.8880944398	
C	5.0000000000	19.5740390102	12.1906951839	
C	5.0000000000	17.1145184981	5.0197062536	
C	5.0000000000	17.1145184981	9.3223059719	
C	5.0000000000	17.1145184981	13.6249062031	
C	5.0000000000	18.3442787541	5.7367943243	
C	5.0000000000	18.3442787541	10.0393950684	
C	5.0000000000	18.3442787541	14.3419952996	
C	5.0000000000	20.8037678200	7.1710063693	
C	5.0000000000	20.8037678200	11.4736060875	
C	5.0000000000	22.0335280761	7.8880944398	
C	5.0000000000	22.0335280761	12.1906951839	
C	5.0000000000	19.5740390102	5.0197062536	
C	5.0000000000	19.5740390102	9.3223059719	
C	5.0000000000	19.5740390102	13.6249062031	
C	5.0000000000	20.8037678200	5.7367943243	
C	5.0000000000	20.8037678200	10.0393950684	
C	5.0000000000	23.2632883321	7.1710063693	
C	5.0000000000	23.2632883321	11.4736060875	
C	5.0000000000	22.0335280761	5.0197062536	
C	5.0000000000	22.0335280761	9.3223059719	
C	5.0000000000	23.2632883321	5.7367943243	
C	5.0000000000	23.2632883321	10.0393950684	
H	5.0000000000	5.1027537601	3.4188461863	
H	5.0000000000	5.1027537601	16.3266468799	
H	5.0000000000	7.2764709531	4.6863922571	
H	5.0000000000	5.1027537601	0.8837506468	
H	5.0000000000	5.1027537601	13.7915547383	
H	5.0000000000	8.7920035188	11.6402546228	
H	5.0000000000	7.2764709531	12.5240086675	
H	5.0000000000	10.9657207118	10.3727085520	
H	5.0000000000	8.7920035188	5.5701463020	
H	5.0000000000	10.9657207118	6.8376923727	
H	5.0000000000	12.4812825399	7.7214464175	
H	5.0000000000	12.4812825399	9.4889545071	
H	5.0000000000	16.8287177995	16.3266468799	
H	5.0000000000	16.8287177995	0.8837506468	
H	5.0000000000	18.3442787541	1.7675082179	
H	5.0000000000	20.5179968207	3.0350541604	
H	5.0000000000	18.3442787541	15.4428928351	
H	5.0000000000	22.0335280761	13.2915927195	
H	5.0000000000	20.5179968207	14.1753467643	
H	5.0000000000	24.2072461426	7.7214464175	
H	5.0000000000	24.2072461426	12.0240466487	
H	5.0000000000	22.0335280761	3.9188082052	
H	5.0000000000	24.2072461426	5.1863542759	
H	5.0000000000	24.2072461426	9.4889545071	
K_POINTS (automatic)
1 1 10 0 0 0
CELL_PARAMETERS cubic
10.000000   0.0000000   0.000000
 0.000000  29.3100000   0.000000
 0.000000   0.0000000   17.210400
