 &control
    calculation='relax'
    pseudo_dir = '/home/zfwang/hp_home/MySoftware/qe-6.3/pseudo'
    outdir='/home/zfwang/scratch/GNRDATASET/AGNR/V9_3',
    prefix='V9_3',
    tstress = .true.
    tprnfor = .true.
    etot_conv_thr = 1.0D-4,
    forc_conv_thr = 1.0D-3,
    wf_collect = .true.,
 /
 &system
    ibrav = 0,
    celldm(1) = 1.8897261249935,
    nat = 108,
    ntyp = 2,
    ecutwfc =40.d0
    ecutrho =480.d0
    occupations='smearing', smearing='marzari-vanderbilt', degauss=0.01
	nosym=.true
 /
 &electrons
    conv_thr = 1.0D-5
    mixing_beta = 0.7
 /
  &IONS
    ion_dynamics = 'bfgs'
	upscale = 1.0D4
	
 /
ATOMIC_SPECIES
C  12.0107  C.pbe-n-rrkjus_psl.0.1.UPF
H  1.00794  H.pbe-rrkjus_psl.0.1.UPF
ATOMIC_POSITIONS (Angstrom)
C	5.0000000000	6.0467115706	2.9252059981	
C	5.0000000000	6.0467115706	16.0886064438	
C	5.0000000000	7.2764709531	3.6564943555	
C	5.0000000000	7.2764709531	16.8198953243	
C	5.0000000000	6.0467115706	1.4625994683	
C	5.0000000000	6.0467115706	14.6259952065	
C	5.0000000000	8.5062307724	2.9252059981	
C	5.0000000000	8.5062307724	16.0886064438	
C	5.0000000000	9.7359613293	3.6564943555	
C	5.0000000000	9.7359613293	12.4320950885	
C	5.0000000000	9.7359613293	16.8198953243	
C	5.0000000000	7.2764709531	0.7313006495	
C	5.0000000000	7.2764709531	13.8947063260	
C	5.0000000000	8.5062307724	1.4625994683	
C	5.0000000000	8.5062307724	14.6259952065	
C	5.0000000000	10.9657207118	2.9252059981	
C	5.0000000000	10.9657207118	11.7008062080	
C	5.0000000000	10.9657207118	16.0886064438	
C	5.0000000000	12.1954800944	3.6564943555	
C	5.0000000000	12.1954800944	12.4320950885	
C	5.0000000000	12.1954800944	16.8198953243	
C	5.0000000000	9.7359613293	0.7313006495	
C	5.0000000000	9.7359613293	5.1191063775	
C	5.0000000000	9.7359613293	13.8947063260	
C	5.0000000000	10.9657207118	1.4625994683	
C	5.0000000000	10.9657207118	5.8503942119	
C	5.0000000000	10.9657207118	14.6259952065	
C	5.0000000000	13.4252403504	2.9252059981	
C	5.0000000000	13.4252403504	7.3130064954	
C	5.0000000000	13.4252403504	11.7008062080	
C	5.0000000000	13.4252403504	16.0886064438	
C	5.0000000000	14.6549997330	3.6564943555	
C	5.0000000000	14.6549997330	8.0442943297	
C	5.0000000000	14.6549997330	12.4320950885	
C	5.0000000000	14.6549997330	16.8198953243	
C	5.0000000000	12.1954800944	0.7313006495	
C	5.0000000000	12.1954800944	5.1191063775	
C	5.0000000000	12.1954800944	13.8947063260	
C	5.0000000000	13.4252403504	1.4625994683	
C	5.0000000000	13.4252403504	5.8503942119	
C	5.0000000000	13.4252403504	10.2381949707	
C	5.0000000000	13.4252403504	14.6259952065	
C	5.0000000000	15.8847599890	2.9252059981	
C	5.0000000000	15.8847599890	7.3130064954	
C	5.0000000000	15.8847599890	11.7008062080	
C	5.0000000000	15.8847599890	16.0886064438	
C	5.0000000000	17.1145184981	3.6564943555	
C	5.0000000000	17.1145184981	8.0442943297	
C	5.0000000000	17.1145184981	12.4320950885	
C	5.0000000000	14.6549997330	0.7313006495	
C	5.0000000000	14.6549997330	5.1191063775	
C	5.0000000000	14.6549997330	9.5069060902	
C	5.0000000000	14.6549997330	13.8947063260	
C	5.0000000000	15.8847599890	1.4625994683	
C	5.0000000000	15.8847599890	5.8503942119	
C	5.0000000000	15.8847599890	10.2381949707	
C	5.0000000000	15.8847599890	14.6259952065	
C	5.0000000000	18.3442787541	2.9252059981	
C	5.0000000000	18.3442787541	7.3130064954	
C	5.0000000000	18.3442787541	11.7008062080	
C	5.0000000000	19.5740390102	3.6564943555	
C	5.0000000000	19.5740390102	8.0442943297	
C	5.0000000000	19.5740390102	12.4320950885	
C	5.0000000000	17.1145184981	5.1191063775	
C	5.0000000000	17.1145184981	9.5069060902	
C	5.0000000000	17.1145184981	13.8947063260	
C	5.0000000000	18.3442787541	5.8503942119	
C	5.0000000000	18.3442787541	10.2381949707	
C	5.0000000000	18.3442787541	14.6259952065	
C	5.0000000000	20.8037678200	7.3130064954	
C	5.0000000000	20.8037678200	11.7008062080	
C	5.0000000000	22.0335280761	8.0442943297	
C	5.0000000000	22.0335280761	12.4320950885	
C	5.0000000000	19.5740390102	5.1191063775	
C	5.0000000000	19.5740390102	9.5069060902	
C	5.0000000000	19.5740390102	13.8947063260	
C	5.0000000000	20.8037678200	5.8503942119	
C	5.0000000000	20.8037678200	10.2381949707	
C	5.0000000000	23.2632883321	7.3130064954	
C	5.0000000000	23.2632883321	11.7008062080	
C	5.0000000000	22.0335280761	5.1191063775	
C	5.0000000000	22.0335280761	9.5069060902	
C	5.0000000000	23.2632883321	5.8503942119	
C	5.0000000000	23.2632883321	10.2381949707	
H	5.0000000000	5.1027537601	3.4865461108	
H	5.0000000000	5.1027537601	16.6499468181	
H	5.0000000000	7.2764709531	4.7791921038	
H	5.0000000000	5.1027537601	0.9012506596	
H	5.0000000000	5.1027537601	14.0646548321	
H	5.0000000000	8.7920035188	11.8707547143	
H	5.0000000000	7.2764709531	12.7720088392	
H	5.0000000000	10.9657207118	10.5781087213	
H	5.0000000000	8.7920035188	5.6804462288	
H	5.0000000000	10.9657207118	6.9730922216	
H	5.0000000000	12.4812825399	7.8743463466	
H	5.0000000000	12.4812825399	9.6768545964	
H	5.0000000000	16.8287177995	16.6499468181	
H	5.0000000000	16.8287177995	0.9012506596	
H	5.0000000000	18.3442787541	1.8025083806	
H	5.0000000000	20.5179968207	3.0951542428	
H	5.0000000000	18.3442787541	15.7486926932	
H	5.0000000000	22.0335280761	13.5547925753	
H	5.0000000000	20.5179968207	14.4560467002	
H	5.0000000000	24.2072461426	7.8743463466	
H	5.0000000000	24.2072461426	12.2621465824	
H	5.0000000000	22.0335280761	3.9964083677	
H	5.0000000000	24.2072461426	5.2890543606	
H	5.0000000000	24.2072461426	9.6768545964	
K_POINTS (automatic)
1 1 10 0 0 0
CELL_PARAMETERS cubic
10.000000   0.0000000   0.000000
 0.000000  29.3100000   0.000000
 0.000000   0.0000000   17.551200
