 &bands
       prefix='V9_3',
       outdir='/home/zfwang/scratch/GNRDATASET/AGNR/V9_3',
       filband='bands_V9_3.dat',
       lsym=.true.,
 /
