 &bands
       prefix='V9_5',
       outdir='/home/zfwang/scratch/GNRDATASET/AGNR/V9_5',
       filband='bands_V9_5.dat',
       lsym=.true.,
 /
