 &control
    calculation='nscf'
    pseudo_dir = '/home/zfwang/hp_home/MySoftware/qe-6.3/pseudo',
    outdir='/home/zfwang/scratch/GNRDATASET/AGNR/V9_5'
    prefix='V9_5'
    wf_collect = .true.
 /
 &system
    ibrav = 0,
    celldm(1) = 1.8897261249935,
    nat = 108,
    ntyp = 2,
    ecutwfc=40.0,
    ecutrho=480.d0,
    nbnd=500,nosym=.true.,
    occupations='smearing', smearing='marzari-vanderbilt', degauss=0.01
 /
 &electrons
    conv_thr = 1.0D-5
    mixing_beta = 0.7
 /
ATOMIC_SPECIES
C  12.0107  C.pbe-n-rrkjus_psl.0.1.UPF
H  1.00794  H.pbe-rrkjus_psl.0.1.UPF
ATOMIC_POSITIONS (Angstrom)
C	5.0000000000	6.0467115706	2.9820061146	
C	5.0000000000	6.0467115706	16.4010065689	
C	5.0000000000	7.2764709531	3.7274942459	
C	5.0000000000	7.2764709531	17.1464952335	
C	5.0000000000	6.0467115706	1.4909994580	
C	5.0000000000	6.0467115706	14.9099951134	
C	5.0000000000	8.5062307724	2.9820061146	
C	5.0000000000	8.5062307724	16.4010065689	
C	5.0000000000	9.7359613293	3.7274942459	
C	5.0000000000	9.7359613293	12.6734949932	
C	5.0000000000	9.7359613293	17.1464952335	
C	5.0000000000	7.2764709531	0.7455006621	
C	5.0000000000	7.2764709531	14.1645064488	
C	5.0000000000	8.5062307724	1.4909994580	
C	5.0000000000	8.5062307724	14.9099951134	
C	5.0000000000	10.9657207118	2.9820061146	
C	5.0000000000	10.9657207118	11.9280063286	
C	5.0000000000	10.9657207118	16.4010065689	
C	5.0000000000	12.1954800944	3.7274942459	
C	5.0000000000	12.1954800944	12.6734949932	
C	5.0000000000	12.1954800944	17.1464952335	
C	5.0000000000	9.7359613293	0.7455006621	
C	5.0000000000	9.7359613293	5.2185065013	
C	5.0000000000	9.7359613293	14.1645064488	
C	5.0000000000	10.9657207118	1.4909994580	
C	5.0000000000	10.9657207118	5.9639940995	
C	5.0000000000	10.9657207118	14.9099951134	
C	5.0000000000	13.4252403504	2.9820061146	
C	5.0000000000	13.4252403504	7.4550066215	
C	5.0000000000	13.4252403504	11.9280063286	
C	5.0000000000	13.4252403504	16.4010065689	
C	5.0000000000	14.6549997330	3.7274942459	
C	5.0000000000	14.6549997330	8.2004942196	
C	5.0000000000	14.6549997330	12.6734949932	
C	5.0000000000	14.6549997330	17.1464952335	
C	5.0000000000	12.1954800944	0.7455006621	
C	5.0000000000	12.1954800944	5.2185065013	
C	5.0000000000	12.1954800944	14.1645064488	
C	5.0000000000	13.4252403504	1.4909994580	
C	5.0000000000	13.4252403504	5.9639940995	
C	5.0000000000	13.4252403504	10.4369948731	
C	5.0000000000	13.4252403504	14.9099951134	
C	5.0000000000	15.8847599890	2.9820061146	
C	5.0000000000	15.8847599890	7.4550066215	
C	5.0000000000	15.8847599890	11.9280063286	
C	5.0000000000	15.8847599890	16.4010065689	
C	5.0000000000	17.1145184981	3.7274942459	
C	5.0000000000	17.1145184981	8.2004942196	
C	5.0000000000	17.1145184981	12.6734949932	
C	5.0000000000	14.6549997330	0.7455006621	
C	5.0000000000	14.6549997330	5.2185065013	
C	5.0000000000	14.6549997330	9.6915062084	
C	5.0000000000	14.6549997330	14.1645064488	
C	5.0000000000	15.8847599890	1.4909994580	
C	5.0000000000	15.8847599890	5.9639940995	
C	5.0000000000	15.8847599890	10.4369948731	
C	5.0000000000	15.8847599890	14.9099951134	
C	5.0000000000	18.3442787541	2.9820061146	
C	5.0000000000	18.3442787541	7.4550066215	
C	5.0000000000	18.3442787541	11.9280063286	
C	5.0000000000	19.5740390102	3.7274942459	
C	5.0000000000	19.5740390102	8.2004942196	
C	5.0000000000	19.5740390102	12.6734949932	
C	5.0000000000	17.1145184981	5.2185065013	
C	5.0000000000	17.1145184981	9.6915062084	
C	5.0000000000	17.1145184981	14.1645064488	
C	5.0000000000	18.3442787541	5.9639940995	
C	5.0000000000	18.3442787541	10.4369948731	
C	5.0000000000	18.3442787541	14.9099951134	
C	5.0000000000	20.8037678200	7.4550066215	
C	5.0000000000	20.8037678200	11.9280063286	
C	5.0000000000	22.0335280761	8.2004942196	
C	5.0000000000	22.0335280761	12.6734949932	
C	5.0000000000	19.5740390102	5.2185065013	
C	5.0000000000	19.5740390102	9.6915062084	
C	5.0000000000	19.5740390102	14.1645064488	
C	5.0000000000	20.8037678200	5.9639940995	
C	5.0000000000	20.8037678200	10.4369948731	
C	5.0000000000	23.2632883321	7.4550066215	
C	5.0000000000	23.2632883321	11.9280063286	
C	5.0000000000	22.0335280761	5.2185065013	
C	5.0000000000	22.0335280761	9.6915062084	
C	5.0000000000	23.2632883321	5.9639940995	
C	5.0000000000	23.2632883321	10.4369948731	
H	5.0000000000	5.1027537601	3.5542460353	
H	5.0000000000	5.1027537601	16.9732467563	
H	5.0000000000	7.2764709531	4.8719919505	
H	5.0000000000	5.1027537601	0.9187506724	
H	5.0000000000	5.1027537601	14.3377549260	
H	5.0000000000	8.7920035188	12.1012548059	
H	5.0000000000	7.2764709531	13.0200090108	
H	5.0000000000	10.9657207118	10.7835088907	
H	5.0000000000	8.7920035188	5.7907461555	
H	5.0000000000	10.9657207118	7.1084920706	
H	5.0000000000	12.4812825399	8.0272462757	
H	5.0000000000	12.4812825399	9.8647546856	
H	5.0000000000	16.8287177995	16.9732467563	
H	5.0000000000	16.8287177995	0.9187506724	
H	5.0000000000	18.3442787541	1.8375085433	
H	5.0000000000	20.5179968207	3.1552543252	
H	5.0000000000	18.3442787541	16.0544925513	
H	5.0000000000	22.0335280761	13.8179924312	
H	5.0000000000	20.5179968207	14.7367466361	
H	5.0000000000	24.2072461426	8.0272462757	
H	5.0000000000	24.2072461426	12.5002465160	
H	5.0000000000	22.0335280761	4.0740085302	
H	5.0000000000	24.2072461426	5.3917544453	
H	5.0000000000	24.2072461426	9.8647546856	
K_POINTS (automatic)
1 1 50 0 0 0
CELL_PARAMETERS cubic
10.000000   0.0000000   0.000000
 0.000000  29.3100000   0.000000
 0.000000   0.0000000   17.892000
