 &control
    calculation='nscf'
    pseudo_dir = '/home/zfwang/hp_home/MySoftware/qe-6.3/pseudo',
    outdir='/home/zfwang/scratch/GNRDATASET/AGNR/V9_7'
    prefix='V9_7'
    wf_collect = .true.
 /
 &system
    ibrav = 0,
    celldm(1) = 1.8897261249935,
    nat = 108,
    ntyp = 2,
    ecutwfc=40.0,
    ecutrho=480.d0,
    nbnd=500,nosym=.true.,
    occupations='smearing', smearing='marzari-vanderbilt', degauss=0.01
 /
 &electrons
    conv_thr = 1.0D-5
    mixing_beta = 0.7
 /
ATOMIC_SPECIES
C  12.0107  C.pbe-n-rrkjus_psl.0.1.UPF
H  1.00794  H.pbe-rrkjus_psl.0.1.UPF
ATOMIC_POSITIONS (Angstrom)
C	5.0000000000	6.0467115706	3.0388062310	
C	5.0000000000	6.0467115706	16.7134066940	
C	5.0000000000	7.2764709531	3.7984941363	
C	5.0000000000	7.2764709531	17.4730951427	
C	5.0000000000	6.0467115706	1.5193994477	
C	5.0000000000	6.0467115706	15.1939950203	
C	5.0000000000	8.5062307724	3.0388062310	
C	5.0000000000	8.5062307724	16.7134066940	
C	5.0000000000	9.7359613293	3.7984941363	
C	5.0000000000	9.7359613293	12.9148948978	
C	5.0000000000	9.7359613293	17.4730951427	
C	5.0000000000	7.2764709531	0.7597006747	
C	5.0000000000	7.2764709531	14.4343065716	
C	5.0000000000	8.5062307724	1.5193994477	
C	5.0000000000	8.5062307724	15.1939950203	
C	5.0000000000	10.9657207118	3.0388062310	
C	5.0000000000	10.9657207118	12.1552064491	
C	5.0000000000	10.9657207118	16.7134066940	
C	5.0000000000	12.1954800944	3.7984941363	
C	5.0000000000	12.1954800944	12.9148948978	
C	5.0000000000	12.1954800944	17.4730951427	
C	5.0000000000	9.7359613293	0.7597006747	
C	5.0000000000	9.7359613293	5.3179066251	
C	5.0000000000	9.7359613293	14.4343065716	
C	5.0000000000	10.9657207118	1.5193994477	
C	5.0000000000	10.9657207118	6.0775939871	
C	5.0000000000	10.9657207118	15.1939950203	
C	5.0000000000	13.4252403504	3.0388062310	
C	5.0000000000	13.4252403504	7.5970067476	
C	5.0000000000	13.4252403504	12.1552064491	
C	5.0000000000	13.4252403504	16.7134066940	
C	5.0000000000	14.6549997330	3.7984941363	
C	5.0000000000	14.6549997330	8.3566941095	
C	5.0000000000	14.6549997330	12.9148948978	
C	5.0000000000	14.6549997330	17.4730951427	
C	5.0000000000	12.1954800944	0.7597006747	
C	5.0000000000	12.1954800944	5.3179066251	
C	5.0000000000	12.1954800944	14.4343065716	
C	5.0000000000	13.4252403504	1.5193994477	
C	5.0000000000	13.4252403504	6.0775939871	
C	5.0000000000	13.4252403504	10.6357947754	
C	5.0000000000	13.4252403504	15.1939950203	
C	5.0000000000	15.8847599890	3.0388062310	
C	5.0000000000	15.8847599890	7.5970067476	
C	5.0000000000	15.8847599890	12.1552064491	
C	5.0000000000	15.8847599890	16.7134066940	
C	5.0000000000	17.1145184981	3.7984941363	
C	5.0000000000	17.1145184981	8.3566941095	
C	5.0000000000	17.1145184981	12.9148948978	
C	5.0000000000	14.6549997330	0.7597006747	
C	5.0000000000	14.6549997330	5.3179066251	
C	5.0000000000	14.6549997330	9.8761063267	
C	5.0000000000	14.6549997330	14.4343065716	
C	5.0000000000	15.8847599890	1.5193994477	
C	5.0000000000	15.8847599890	6.0775939871	
C	5.0000000000	15.8847599890	10.6357947754	
C	5.0000000000	15.8847599890	15.1939950203	
C	5.0000000000	18.3442787541	3.0388062310	
C	5.0000000000	18.3442787541	7.5970067476	
C	5.0000000000	18.3442787541	12.1552064491	
C	5.0000000000	19.5740390102	3.7984941363	
C	5.0000000000	19.5740390102	8.3566941095	
C	5.0000000000	19.5740390102	12.9148948978	
C	5.0000000000	17.1145184981	5.3179066251	
C	5.0000000000	17.1145184981	9.8761063267	
C	5.0000000000	17.1145184981	14.4343065716	
C	5.0000000000	18.3442787541	6.0775939871	
C	5.0000000000	18.3442787541	10.6357947754	
C	5.0000000000	18.3442787541	15.1939950203	
C	5.0000000000	20.8037678200	7.5970067476	
C	5.0000000000	20.8037678200	12.1552064491	
C	5.0000000000	22.0335280761	8.3566941095	
C	5.0000000000	22.0335280761	12.9148948978	
C	5.0000000000	19.5740390102	5.3179066251	
C	5.0000000000	19.5740390102	9.8761063267	
C	5.0000000000	19.5740390102	14.4343065716	
C	5.0000000000	20.8037678200	6.0775939871	
C	5.0000000000	20.8037678200	10.6357947754	
C	5.0000000000	23.2632883321	7.5970067476	
C	5.0000000000	23.2632883321	12.1552064491	
C	5.0000000000	22.0335280761	5.3179066251	
C	5.0000000000	22.0335280761	9.8761063267	
C	5.0000000000	23.2632883321	6.0775939871	
C	5.0000000000	23.2632883321	10.6357947754	
H	5.0000000000	5.1027537601	3.6219459598	
H	5.0000000000	5.1027537601	17.2965466946	
H	5.0000000000	7.2764709531	4.9647917972	
H	5.0000000000	5.1027537601	0.9362506852	
H	5.0000000000	5.1027537601	14.6108550198	
H	5.0000000000	8.7920035188	12.3317548974	
H	5.0000000000	7.2764709531	13.2680091824	
H	5.0000000000	10.9657207118	10.9889090600	
H	5.0000000000	8.7920035188	5.9010460823	
H	5.0000000000	10.9657207118	7.2438919196	
H	5.0000000000	12.4812825399	8.1801462047	
H	5.0000000000	12.4812825399	10.0526547749	
H	5.0000000000	16.8287177995	17.2965466946	
H	5.0000000000	16.8287177995	0.9362506852	
H	5.0000000000	18.3442787541	1.8725087061	
H	5.0000000000	20.5179968207	3.2153544075	
H	5.0000000000	18.3442787541	16.3602924094	
H	5.0000000000	22.0335280761	14.0811922870	
H	5.0000000000	20.5179968207	15.0174465720	
H	5.0000000000	24.2072461426	8.1801462047	
H	5.0000000000	24.2072461426	12.7383464496	
H	5.0000000000	22.0335280761	4.1516086927	
H	5.0000000000	24.2072461426	5.4944545300	
H	5.0000000000	24.2072461426	10.0526547749	
K_POINTS (automatic)
1 1 50 0 0 0
CELL_PARAMETERS cubic
10.000000   0.0000000   0.000000
 0.000000  29.3100000   0.000000
 0.000000   0.0000000   18.232800
