 &bands
       prefix='V9_7',
       outdir='/home/zfwang/scratch/GNRDATASET/AGNR/V9_7',
       filband='bands_V9_7.dat',
       lsym=.true.,
 /
