 &control
    calculation='nscf'
    pseudo_dir = '/home/zfwang/hp_home/MySoftware/qe-6.3/pseudo',
    outdir='/home/zfwang/scratch/GNRDATASET/AGNR/V9_9'
    prefix='V9_9'
    wf_collect = .true.
 /
 &system
    ibrav = 0,
    celldm(1) = 1.8897261249935,
    nat = 108,
    ntyp = 2,
    ecutwfc=40.0,
    ecutrho=480.d0,
    nbnd=500,nosym=.true.,
    occupations='smearing', smearing='marzari-vanderbilt', degauss=0.01
 /
 &electrons
    conv_thr = 1.0D-5
    mixing_beta = 0.7
 /
ATOMIC_SPECIES
C  12.0107  C.pbe-n-rrkjus_psl.0.1.UPF
H  1.00794  H.pbe-rrkjus_psl.0.1.UPF
ATOMIC_POSITIONS (Angstrom)
C	5.0000000000	6.0467115706	3.0956063475	
C	5.0000000000	6.0467115706	17.0258068191	
C	5.0000000000	7.2764709531	3.8694940267	
C	5.0000000000	7.2764709531	17.7996950519	
C	5.0000000000	6.0467115706	1.5477994373	
C	5.0000000000	6.0467115706	15.4779949272	
C	5.0000000000	8.5062307724	3.0956063475	
C	5.0000000000	8.5062307724	17.0258068191	
C	5.0000000000	9.7359613293	3.8694940267	
C	5.0000000000	9.7359613293	13.1562948024	
C	5.0000000000	9.7359613293	17.7996950519	
C	5.0000000000	7.2764709531	0.7739006874	
C	5.0000000000	7.2764709531	14.7041066945	
C	5.0000000000	8.5062307724	1.5477994373	
C	5.0000000000	8.5062307724	15.4779949272	
C	5.0000000000	10.9657207118	3.0956063475	
C	5.0000000000	10.9657207118	12.3824065696	
C	5.0000000000	10.9657207118	17.0258068191	
C	5.0000000000	12.1954800944	3.8694940267	
C	5.0000000000	12.1954800944	13.1562948024	
C	5.0000000000	12.1954800944	17.7996950519	
C	5.0000000000	9.7359613293	0.7739006874	
C	5.0000000000	9.7359613293	5.4173067490	
C	5.0000000000	9.7359613293	14.7041066945	
C	5.0000000000	10.9657207118	1.5477994373	
C	5.0000000000	10.9657207118	6.1911938747	
C	5.0000000000	10.9657207118	15.4779949272	
C	5.0000000000	13.4252403504	3.0956063475	
C	5.0000000000	13.4252403504	7.7390068738	
C	5.0000000000	13.4252403504	12.3824065696	
C	5.0000000000	13.4252403504	17.0258068191	
C	5.0000000000	14.6549997330	3.8694940267	
C	5.0000000000	14.6549997330	8.5128939994	
C	5.0000000000	14.6549997330	13.1562948024	
C	5.0000000000	14.6549997330	17.7996950519	
C	5.0000000000	12.1954800944	0.7739006874	
C	5.0000000000	12.1954800944	5.4173067490	
C	5.0000000000	12.1954800944	14.7041066945	
C	5.0000000000	13.4252403504	1.5477994373	
C	5.0000000000	13.4252403504	6.1911938747	
C	5.0000000000	13.4252403504	10.8345946777	
C	5.0000000000	13.4252403504	15.4779949272	
C	5.0000000000	15.8847599890	3.0956063475	
C	5.0000000000	15.8847599890	7.7390068738	
C	5.0000000000	15.8847599890	12.3824065696	
C	5.0000000000	15.8847599890	17.0258068191	
C	5.0000000000	17.1145184981	3.8694940267	
C	5.0000000000	17.1145184981	8.5128939994	
C	5.0000000000	17.1145184981	13.1562948024	
C	5.0000000000	14.6549997330	0.7739006874	
C	5.0000000000	14.6549997330	5.4173067490	
C	5.0000000000	14.6549997330	10.0607064450	
C	5.0000000000	14.6549997330	14.7041066945	
C	5.0000000000	15.8847599890	1.5477994373	
C	5.0000000000	15.8847599890	6.1911938747	
C	5.0000000000	15.8847599890	10.8345946777	
C	5.0000000000	15.8847599890	15.4779949272	
C	5.0000000000	18.3442787541	3.0956063475	
C	5.0000000000	18.3442787541	7.7390068738	
C	5.0000000000	18.3442787541	12.3824065696	
C	5.0000000000	19.5740390102	3.8694940267	
C	5.0000000000	19.5740390102	8.5128939994	
C	5.0000000000	19.5740390102	13.1562948024	
C	5.0000000000	17.1145184981	5.4173067490	
C	5.0000000000	17.1145184981	10.0607064450	
C	5.0000000000	17.1145184981	14.7041066945	
C	5.0000000000	18.3442787541	6.1911938747	
C	5.0000000000	18.3442787541	10.8345946777	
C	5.0000000000	18.3442787541	15.4779949272	
C	5.0000000000	20.8037678200	7.7390068738	
C	5.0000000000	20.8037678200	12.3824065696	
C	5.0000000000	22.0335280761	8.5128939994	
C	5.0000000000	22.0335280761	13.1562948024	
C	5.0000000000	19.5740390102	5.4173067490	
C	5.0000000000	19.5740390102	10.0607064450	
C	5.0000000000	19.5740390102	14.7041066945	
C	5.0000000000	20.8037678200	6.1911938747	
C	5.0000000000	20.8037678200	10.8345946777	
C	5.0000000000	23.2632883321	7.7390068738	
C	5.0000000000	23.2632883321	12.3824065696	
C	5.0000000000	22.0335280761	5.4173067490	
C	5.0000000000	22.0335280761	10.0607064450	
C	5.0000000000	23.2632883321	6.1911938747	
C	5.0000000000	23.2632883321	10.8345946777	
H	5.0000000000	5.1027537601	3.6896458843	
H	5.0000000000	5.1027537601	17.6198466328	
H	5.0000000000	7.2764709531	5.0575916438	
H	5.0000000000	5.1027537601	0.9537506980	
H	5.0000000000	5.1027537601	14.8839551136	
H	5.0000000000	8.7920035188	12.5622549889	
H	5.0000000000	7.2764709531	13.5160093541	
H	5.0000000000	10.9657207118	11.1943092294	
H	5.0000000000	8.7920035188	6.0113460091	
H	5.0000000000	10.9657207118	7.3792917685	
H	5.0000000000	12.4812825399	8.3330461338	
H	5.0000000000	12.4812825399	10.2405548641	
H	5.0000000000	16.8287177995	17.6198466328	
H	5.0000000000	16.8287177995	0.9537506980	
H	5.0000000000	18.3442787541	1.9075088688	
H	5.0000000000	20.5179968207	3.2754544899	
H	5.0000000000	18.3442787541	16.6660922675	
H	5.0000000000	22.0335280761	14.3443921428	
H	5.0000000000	20.5179968207	15.2981465080	
H	5.0000000000	24.2072461426	8.3330461338	
H	5.0000000000	24.2072461426	12.9764463833	
H	5.0000000000	22.0335280761	4.2292088552	
H	5.0000000000	24.2072461426	5.5971546146	
H	5.0000000000	24.2072461426	10.2405548641	
K_POINTS (automatic)
1 1 50 0 0 0
CELL_PARAMETERS cubic
10.000000   0.0000000   0.000000
 0.000000  29.3100000   0.000000
 0.000000   0.0000000   18.573600
