 &control
    calculation='relax'
    pseudo_dir = '/home/zfwang/hp_home/MySoftware/qe-6.3/pseudo'
    outdir='/home/zfwang/scratch/GNRDATASET/AGNR/V9_m5',
    prefix='V9_m5',
    tstress = .true.
    tprnfor = .true.
    etot_conv_thr = 1.0D-4,
    forc_conv_thr = 1.0D-3,
    wf_collect = .true.,
 /
 &system
    ibrav = 0,
    celldm(1) = 1.8897261249935,
    nat = 108,
    ntyp = 2,
    ecutwfc =40.d0
    ecutrho =480.d0
    occupations='smearing', smearing='marzari-vanderbilt', degauss=0.01
	nosym=.true
 /
 &electrons
    conv_thr = 1.0D-5
    mixing_beta = 0.7
 /
  &IONS
    ion_dynamics = 'bfgs'
	upscale = 1.0D4
	
 /
ATOMIC_SPECIES
C  12.0107  C.pbe-n-rrkjus_psl.0.1.UPF
H  1.00794  H.pbe-rrkjus_psl.0.1.UPF
ATOMIC_POSITIONS (Angstrom)
C	5.0000000000	6.0467115706	2.6980055322	
C	5.0000000000	6.0467115706	14.8390059433	
C	5.0000000000	7.2764709531	3.3724947939	
C	5.0000000000	7.2764709531	15.5134956875	
C	5.0000000000	6.0467115706	1.3489995096	
C	5.0000000000	6.0467115706	13.4899955788	
C	5.0000000000	8.5062307724	2.6980055322	
C	5.0000000000	8.5062307724	14.8390059433	
C	5.0000000000	9.7359613293	3.3724947939	
C	5.0000000000	9.7359613293	11.4664954700	
C	5.0000000000	9.7359613293	15.5134956875	
C	5.0000000000	7.2764709531	0.6745005991	
C	5.0000000000	7.2764709531	12.8155058346	
C	5.0000000000	8.5062307724	1.3489995096	
C	5.0000000000	8.5062307724	13.4899955788	
C	5.0000000000	10.9657207118	2.6980055322	
C	5.0000000000	10.9657207118	10.7920057258	
C	5.0000000000	10.9657207118	14.8390059433	
C	5.0000000000	12.1954800944	3.3724947939	
C	5.0000000000	12.1954800944	11.4664954700	
C	5.0000000000	12.1954800944	15.5134956875	
C	5.0000000000	9.7359613293	0.6745005991	
C	5.0000000000	9.7359613293	4.7215058821	
C	5.0000000000	9.7359613293	12.8155058346	
C	5.0000000000	10.9657207118	1.3489995096	
C	5.0000000000	10.9657207118	5.3959946615	
C	5.0000000000	10.9657207118	13.4899955788	
C	5.0000000000	13.4252403504	2.6980055322	
C	5.0000000000	13.4252403504	6.7450059909	
C	5.0000000000	13.4252403504	10.7920057258	
C	5.0000000000	13.4252403504	14.8390059433	
C	5.0000000000	14.6549997330	3.3724947939	
C	5.0000000000	14.6549997330	7.4194947702	
C	5.0000000000	14.6549997330	11.4664954700	
C	5.0000000000	14.6549997330	15.5134956875	
C	5.0000000000	12.1954800944	0.6745005991	
C	5.0000000000	12.1954800944	4.7215058821	
C	5.0000000000	12.1954800944	12.8155058346	
C	5.0000000000	13.4252403504	1.3489995096	
C	5.0000000000	13.4252403504	5.3959946615	
C	5.0000000000	13.4252403504	9.4429953613	
C	5.0000000000	13.4252403504	13.4899955788	
C	5.0000000000	15.8847599890	2.6980055322	
C	5.0000000000	15.8847599890	6.7450059909	
C	5.0000000000	15.8847599890	10.7920057258	
C	5.0000000000	15.8847599890	14.8390059433	
C	5.0000000000	17.1145184981	3.3724947939	
C	5.0000000000	17.1145184981	7.4194947702	
C	5.0000000000	17.1145184981	11.4664954700	
C	5.0000000000	14.6549997330	0.6745005991	
C	5.0000000000	14.6549997330	4.7215058821	
C	5.0000000000	14.6549997330	8.7685056172	
C	5.0000000000	14.6549997330	12.8155058346	
C	5.0000000000	15.8847599890	1.3489995096	
C	5.0000000000	15.8847599890	5.3959946615	
C	5.0000000000	15.8847599890	9.4429953613	
C	5.0000000000	15.8847599890	13.4899955788	
C	5.0000000000	18.3442787541	2.6980055322	
C	5.0000000000	18.3442787541	6.7450059909	
C	5.0000000000	18.3442787541	10.7920057258	
C	5.0000000000	19.5740390102	3.3724947939	
C	5.0000000000	19.5740390102	7.4194947702	
C	5.0000000000	19.5740390102	11.4664954700	
C	5.0000000000	17.1145184981	4.7215058821	
C	5.0000000000	17.1145184981	8.7685056172	
C	5.0000000000	17.1145184981	12.8155058346	
C	5.0000000000	18.3442787541	5.3959946615	
C	5.0000000000	18.3442787541	9.4429953613	
C	5.0000000000	18.3442787541	13.4899955788	
C	5.0000000000	20.8037678200	6.7450059909	
C	5.0000000000	20.8037678200	10.7920057258	
C	5.0000000000	22.0335280761	7.4194947702	
C	5.0000000000	22.0335280761	11.4664954700	
C	5.0000000000	19.5740390102	4.7215058821	
C	5.0000000000	19.5740390102	8.7685056172	
C	5.0000000000	19.5740390102	12.8155058346	
C	5.0000000000	20.8037678200	5.3959946615	
C	5.0000000000	20.8037678200	9.4429953613	
C	5.0000000000	23.2632883321	6.7450059909	
C	5.0000000000	23.2632883321	10.7920057258	
C	5.0000000000	22.0335280761	4.7215058821	
C	5.0000000000	22.0335280761	8.7685056172	
C	5.0000000000	23.2632883321	5.3959946615	
C	5.0000000000	23.2632883321	9.4429953613	
H	5.0000000000	5.1027537601	3.2157464129	
H	5.0000000000	5.1027537601	15.3567470653	
H	5.0000000000	7.2764709531	4.4079927171	
H	5.0000000000	5.1027537601	0.8312506084	
H	5.0000000000	5.1027537601	12.9722544568	
H	5.0000000000	8.7920035188	10.9487543482	
H	5.0000000000	7.2764709531	11.7800081526	
H	5.0000000000	10.9657207118	9.7565080439	
H	5.0000000000	8.7920035188	5.2392465217	
H	5.0000000000	10.9657207118	6.4314928258	
H	5.0000000000	12.4812825399	7.2627466303	
H	5.0000000000	12.4812825399	8.9252542394	
H	5.0000000000	16.8287177995	15.3567470653	
H	5.0000000000	16.8287177995	0.8312506084	
H	5.0000000000	18.3442787541	1.6625077297	
H	5.0000000000	20.5179968207	2.8547539132	
H	5.0000000000	18.3442787541	14.5254932607	
H	5.0000000000	22.0335280761	12.5019931520	
H	5.0000000000	20.5179968207	13.3332469565	
H	5.0000000000	24.2072461426	7.2627466303	
H	5.0000000000	24.2072461426	11.3097468478	
H	5.0000000000	22.0335280761	3.6860077178	
H	5.0000000000	24.2072461426	4.8782540219	
H	5.0000000000	24.2072461426	8.9252542394	
K_POINTS (automatic)
1 1 10 0 0 0
CELL_PARAMETERS cubic
10.000000   0.0000000   0.000000
 0.000000  29.3100000   0.000000
 0.000000   0.0000000   16.188000
