 &control
    calculation='relax'
    pseudo_dir = '/home/zfwang/hp_home/MySoftware/qe-6.3/pseudo'
    outdir='/home/zfwang/scratch/GNRDATASET/AGNR/V9_m3',
    prefix='V9_m3',
    tstress = .true.
    tprnfor = .true.
    etot_conv_thr = 1.0D-4,
    forc_conv_thr = 1.0D-3,
    wf_collect = .true.,
 /
 &system
    ibrav = 0,
    celldm(1) = 1.8897261249935,
    nat = 108,
    ntyp = 2,
    ecutwfc =40.d0
    ecutrho =480.d0
    occupations='smearing', smearing='marzari-vanderbilt', degauss=0.01
	nosym=.true
 /
 &electrons
    conv_thr = 1.0D-5
    mixing_beta = 0.7
 /
  &IONS
    ion_dynamics = 'bfgs'
	upscale = 1.0D4
	
 /
ATOMIC_SPECIES
C  12.0107  C.pbe-n-rrkjus_psl.0.1.UPF
H  1.00794  H.pbe-rrkjus_psl.0.1.UPF
ATOMIC_POSITIONS (Angstrom)
C	5.0000000000	6.0467115706	2.7548056487	
C	5.0000000000	6.0467115706	15.1514060684	
C	5.0000000000	7.2764709531	3.4434946843	
C	5.0000000000	7.2764709531	15.8400955967	
C	5.0000000000	6.0467115706	1.3773994993	
C	5.0000000000	6.0467115706	13.7739954857	
C	5.0000000000	8.5062307724	2.7548056487	
C	5.0000000000	8.5062307724	15.1514060684	
C	5.0000000000	9.7359613293	3.4434946843	
C	5.0000000000	9.7359613293	11.7078953747	
C	5.0000000000	9.7359613293	15.8400955967	
C	5.0000000000	7.2764709531	0.6887006117	
C	5.0000000000	7.2764709531	13.0853059574	
C	5.0000000000	8.5062307724	1.3773994993	
C	5.0000000000	8.5062307724	13.7739954857	
C	5.0000000000	10.9657207118	2.7548056487	
C	5.0000000000	10.9657207118	11.0192058464	
C	5.0000000000	10.9657207118	15.1514060684	
C	5.0000000000	12.1954800944	3.4434946843	
C	5.0000000000	12.1954800944	11.7078953747	
C	5.0000000000	12.1954800944	15.8400955967	
C	5.0000000000	9.7359613293	0.6887006117	
C	5.0000000000	9.7359613293	4.8209060059	
C	5.0000000000	9.7359613293	13.0853059574	
C	5.0000000000	10.9657207118	1.3773994993	
C	5.0000000000	10.9657207118	5.5095945491	
C	5.0000000000	10.9657207118	13.7739954857	
C	5.0000000000	13.4252403504	2.7548056487	
C	5.0000000000	13.4252403504	6.8870061170	
C	5.0000000000	13.4252403504	11.0192058464	
C	5.0000000000	13.4252403504	15.1514060684	
C	5.0000000000	14.6549997330	3.4434946843	
C	5.0000000000	14.6549997330	7.5756946601	
C	5.0000000000	14.6549997330	11.7078953747	
C	5.0000000000	14.6549997330	15.8400955967	
C	5.0000000000	12.1954800944	0.6887006117	
C	5.0000000000	12.1954800944	4.8209060059	
C	5.0000000000	12.1954800944	13.0853059574	
C	5.0000000000	13.4252403504	1.3773994993	
C	5.0000000000	13.4252403504	5.5095945491	
C	5.0000000000	13.4252403504	9.6417952637	
C	5.0000000000	13.4252403504	13.7739954857	
C	5.0000000000	15.8847599890	2.7548056487	
C	5.0000000000	15.8847599890	6.8870061170	
C	5.0000000000	15.8847599890	11.0192058464	
C	5.0000000000	15.8847599890	15.1514060684	
C	5.0000000000	17.1145184981	3.4434946843	
C	5.0000000000	17.1145184981	7.5756946601	
C	5.0000000000	17.1145184981	11.7078953747	
C	5.0000000000	14.6549997330	0.6887006117	
C	5.0000000000	14.6549997330	4.8209060059	
C	5.0000000000	14.6549997330	8.9531057354	
C	5.0000000000	14.6549997330	13.0853059574	
C	5.0000000000	15.8847599890	1.3773994993	
C	5.0000000000	15.8847599890	5.5095945491	
C	5.0000000000	15.8847599890	9.6417952637	
C	5.0000000000	15.8847599890	13.7739954857	
C	5.0000000000	18.3442787541	2.7548056487	
C	5.0000000000	18.3442787541	6.8870061170	
C	5.0000000000	18.3442787541	11.0192058464	
C	5.0000000000	19.5740390102	3.4434946843	
C	5.0000000000	19.5740390102	7.5756946601	
C	5.0000000000	19.5740390102	11.7078953747	
C	5.0000000000	17.1145184981	4.8209060059	
C	5.0000000000	17.1145184981	8.9531057354	
C	5.0000000000	17.1145184981	13.0853059574	
C	5.0000000000	18.3442787541	5.5095945491	
C	5.0000000000	18.3442787541	9.6417952637	
C	5.0000000000	18.3442787541	13.7739954857	
C	5.0000000000	20.8037678200	6.8870061170	
C	5.0000000000	20.8037678200	11.0192058464	
C	5.0000000000	22.0335280761	7.5756946601	
C	5.0000000000	22.0335280761	11.7078953747	
C	5.0000000000	19.5740390102	4.8209060059	
C	5.0000000000	19.5740390102	8.9531057354	
C	5.0000000000	19.5740390102	13.0853059574	
C	5.0000000000	20.8037678200	5.5095945491	
C	5.0000000000	20.8037678200	9.6417952637	
C	5.0000000000	23.2632883321	6.8870061170	
C	5.0000000000	23.2632883321	11.0192058464	
C	5.0000000000	22.0335280761	4.8209060059	
C	5.0000000000	22.0335280761	8.9531057354	
C	5.0000000000	23.2632883321	5.5095945491	
C	5.0000000000	23.2632883321	9.6417952637	
H	5.0000000000	5.1027537601	3.2834463374	
H	5.0000000000	5.1027537601	15.6800470035	
H	5.0000000000	7.2764709531	4.5007925638	
H	5.0000000000	5.1027537601	0.8487506212	
H	5.0000000000	5.1027537601	13.2453545507	
H	5.0000000000	8.7920035188	11.1792544397	
H	5.0000000000	7.2764709531	12.0280083242	
H	5.0000000000	10.9657207118	9.9619082133	
H	5.0000000000	8.7920035188	5.3495464484	
H	5.0000000000	10.9657207118	6.5668926748	
H	5.0000000000	12.4812825399	7.4156465594	
H	5.0000000000	12.4812825399	9.1131543286	
H	5.0000000000	16.8287177995	15.6800470035	
H	5.0000000000	16.8287177995	0.8487506212	
H	5.0000000000	18.3442787541	1.6975078924	
H	5.0000000000	20.5179968207	2.9148539956	
H	5.0000000000	18.3442787541	14.8312931188	
H	5.0000000000	22.0335280761	12.7651930079	
H	5.0000000000	20.5179968207	13.6139468924	
H	5.0000000000	24.2072461426	7.4156465594	
H	5.0000000000	24.2072461426	11.5478467814	
H	5.0000000000	22.0335280761	3.7636078803	
H	5.0000000000	24.2072461426	4.9809541066	
H	5.0000000000	24.2072461426	9.1131543286	
K_POINTS (automatic)
1 1 10 0 0 0
CELL_PARAMETERS cubic
10.000000   0.0000000   0.000000
 0.000000  29.3100000   0.000000
 0.000000   0.0000000   16.528800
