 &control
    calculation='nscf'
    pseudo_dir = '/home/zfwang/hp_home/MySoftware/qe-6.3/pseudo',
    outdir='/home/zfwang/scratch/GNRDATASET/AGNR/V9_m7'
    prefix='V9_m7'
    wf_collect = .true.
 /
 &system
    ibrav = 0,
    celldm(1) = 1.8897261249935,
    nat = 108,
    ntyp = 2,
    ecutwfc=40.0,
    ecutrho=480.d0,
    nbnd=500,nosym=.true.,
    occupations='smearing', smearing='marzari-vanderbilt', degauss=0.01
 /
 &electrons
    conv_thr = 1.0D-5
    mixing_beta = 0.7
 /
ATOMIC_SPECIES
C  12.0107  C.pbe-n-rrkjus_psl.0.1.UPF
H  1.00794  H.pbe-rrkjus_psl.0.1.UPF
ATOMIC_POSITIONS (Angstrom)
C	5.0000000000	6.0467115706	2.6412054158	
C	5.0000000000	6.0467115706	14.5266058182	
C	5.0000000000	7.2764709531	3.3014949035	
C	5.0000000000	7.2764709531	15.1868957783	
C	5.0000000000	6.0467115706	1.3205995199	
C	5.0000000000	6.0467115706	13.2059956719	
C	5.0000000000	8.5062307724	2.6412054158	
C	5.0000000000	8.5062307724	14.5266058182	
C	5.0000000000	9.7359613293	3.3014949035	
C	5.0000000000	9.7359613293	11.2250955654	
C	5.0000000000	9.7359613293	15.1868957783	
C	5.0000000000	7.2764709531	0.6603005865	
C	5.0000000000	7.2764709531	12.5457057118	
C	5.0000000000	8.5062307724	1.3205995199	
C	5.0000000000	8.5062307724	13.2059956719	
C	5.0000000000	10.9657207118	2.6412054158	
C	5.0000000000	10.9657207118	10.5648056053	
C	5.0000000000	10.9657207118	14.5266058182	
C	5.0000000000	12.1954800944	3.3014949035	
C	5.0000000000	12.1954800944	11.2250955654	
C	5.0000000000	12.1954800944	15.1868957783	
C	5.0000000000	9.7359613293	0.6603005865	
C	5.0000000000	9.7359613293	4.6221057583	
C	5.0000000000	9.7359613293	12.5457057118	
C	5.0000000000	10.9657207118	1.3205995199	
C	5.0000000000	10.9657207118	5.2823947739	
C	5.0000000000	10.9657207118	13.2059956719	
C	5.0000000000	13.4252403504	2.6412054158	
C	5.0000000000	13.4252403504	6.6030058648	
C	5.0000000000	13.4252403504	10.5648056053	
C	5.0000000000	13.4252403504	14.5266058182	
C	5.0000000000	14.6549997330	3.3014949035	
C	5.0000000000	14.6549997330	7.2632948803	
C	5.0000000000	14.6549997330	11.2250955654	
C	5.0000000000	14.6549997330	15.1868957783	
C	5.0000000000	12.1954800944	0.6603005865	
C	5.0000000000	12.1954800944	4.6221057583	
C	5.0000000000	12.1954800944	12.5457057118	
C	5.0000000000	13.4252403504	1.3205995199	
C	5.0000000000	13.4252403504	5.2823947739	
C	5.0000000000	13.4252403504	9.2441954590	
C	5.0000000000	13.4252403504	13.2059956719	
C	5.0000000000	15.8847599890	2.6412054158	
C	5.0000000000	15.8847599890	6.6030058648	
C	5.0000000000	15.8847599890	10.5648056053	
C	5.0000000000	15.8847599890	14.5266058182	
C	5.0000000000	17.1145184981	3.3014949035	
C	5.0000000000	17.1145184981	7.2632948803	
C	5.0000000000	17.1145184981	11.2250955654	
C	5.0000000000	14.6549997330	0.6603005865	
C	5.0000000000	14.6549997330	4.6221057583	
C	5.0000000000	14.6549997330	8.5839054989	
C	5.0000000000	14.6549997330	12.5457057118	
C	5.0000000000	15.8847599890	1.3205995199	
C	5.0000000000	15.8847599890	5.2823947739	
C	5.0000000000	15.8847599890	9.2441954590	
C	5.0000000000	15.8847599890	13.2059956719	
C	5.0000000000	18.3442787541	2.6412054158	
C	5.0000000000	18.3442787541	6.6030058648	
C	5.0000000000	18.3442787541	10.5648056053	
C	5.0000000000	19.5740390102	3.3014949035	
C	5.0000000000	19.5740390102	7.2632948803	
C	5.0000000000	19.5740390102	11.2250955654	
C	5.0000000000	17.1145184981	4.6221057583	
C	5.0000000000	17.1145184981	8.5839054989	
C	5.0000000000	17.1145184981	12.5457057118	
C	5.0000000000	18.3442787541	5.2823947739	
C	5.0000000000	18.3442787541	9.2441954590	
C	5.0000000000	18.3442787541	13.2059956719	
C	5.0000000000	20.8037678200	6.6030058648	
C	5.0000000000	20.8037678200	10.5648056053	
C	5.0000000000	22.0335280761	7.2632948803	
C	5.0000000000	22.0335280761	11.2250955654	
C	5.0000000000	19.5740390102	4.6221057583	
C	5.0000000000	19.5740390102	8.5839054989	
C	5.0000000000	19.5740390102	12.5457057118	
C	5.0000000000	20.8037678200	5.2823947739	
C	5.0000000000	20.8037678200	9.2441954590	
C	5.0000000000	23.2632883321	6.6030058648	
C	5.0000000000	23.2632883321	10.5648056053	
C	5.0000000000	22.0335280761	4.6221057583	
C	5.0000000000	22.0335280761	8.5839054989	
C	5.0000000000	23.2632883321	5.2823947739	
C	5.0000000000	23.2632883321	9.2441954590	
H	5.0000000000	5.1027537601	3.1480464884	
H	5.0000000000	5.1027537601	15.0334471270	
H	5.0000000000	7.2764709531	4.3151928704	
H	5.0000000000	5.1027537601	0.8137505956	
H	5.0000000000	5.1027537601	12.6991543630	
H	5.0000000000	8.7920035188	10.7182542566	
H	5.0000000000	7.2764709531	11.5320079810	
H	5.0000000000	10.9657207118	9.5511078746	
H	5.0000000000	8.7920035188	5.1289465949	
H	5.0000000000	10.9657207118	6.2960929768	
H	5.0000000000	12.4812825399	7.1098467013	
H	5.0000000000	12.4812825399	8.7373541501	
H	5.0000000000	16.8287177995	15.0334471270	
H	5.0000000000	16.8287177995	0.8137505956	
H	5.0000000000	18.3442787541	1.6275075669	
H	5.0000000000	20.5179968207	2.7946538309	
H	5.0000000000	18.3442787541	14.2196934026	
H	5.0000000000	22.0335280761	12.2387932962	
H	5.0000000000	20.5179968207	13.0525470206	
H	5.0000000000	24.2072461426	7.1098467013	
H	5.0000000000	24.2072461426	11.0716469142	
H	5.0000000000	22.0335280761	3.6084075553	
H	5.0000000000	24.2072461426	4.7755539372	
H	5.0000000000	24.2072461426	8.7373541501	
K_POINTS (automatic)
1 1 50 0 0 0
CELL_PARAMETERS cubic
10.000000   0.0000000   0.000000
 0.000000  29.3100000   0.000000
 0.000000   0.0000000   15.847200
