 &bands
       prefix='V9_m1',
       outdir='/home/zfwang/scratch/GNRDATASET/AGNR/V9_m1',
       filband='bands_V9_m1.dat',
       lsym=.true.,
 /
