 &bands
       prefix='V9_m3',
       outdir='/home/zfwang/scratch/GNRDATASET/AGNR/V9_m3',
       filband='bands_V9_m3.dat',
       lsym=.true.,
 /
