 &control
    calculation='relax'
    pseudo_dir = '/home/zfwang/hp_home/MySoftware/qe-6.3/pseudo'
    outdir='/home/zfwang/scratch/GNRDATASET/AGNR/V9_m9',
    prefix='V9_m9',
    tstress = .true.
    tprnfor = .true.
    etot_conv_thr = 1.0D-4,
    forc_conv_thr = 1.0D-3,
    wf_collect = .true.,
 /
 &system
    ibrav = 0,
    celldm(1) = 1.8897261249935,
    nat = 108,
    ntyp = 2,
    ecutwfc =40.d0
    ecutrho =480.d0
    occupations='smearing', smearing='marzari-vanderbilt', degauss=0.01
	nosym=.true
 /
 &electrons
    conv_thr = 1.0D-5
    mixing_beta = 0.7
 /
  &IONS
    ion_dynamics = 'bfgs'
	upscale = 1.0D4
	
 /
ATOMIC_SPECIES
C  12.0107  C.pbe-n-rrkjus_psl.0.1.UPF
H  1.00794  H.pbe-rrkjus_psl.0.1.UPF
ATOMIC_POSITIONS (Angstrom)
C	5.0000000000	6.0467115706	2.5844052993	
C	5.0000000000	6.0467115706	14.2142056931	
C	5.0000000000	7.2764709531	3.2304950131	
C	5.0000000000	7.2764709531	14.8602958691	
C	5.0000000000	6.0467115706	1.2921995303	
C	5.0000000000	6.0467115706	12.9219957650	
C	5.0000000000	8.5062307724	2.5844052993	
C	5.0000000000	8.5062307724	14.2142056931	
C	5.0000000000	9.7359613293	3.2304950131	
C	5.0000000000	9.7359613293	10.9836956608	
C	5.0000000000	9.7359613293	14.8602958691	
C	5.0000000000	7.2764709531	0.6461005738	
C	5.0000000000	7.2764709531	12.2759055889	
C	5.0000000000	8.5062307724	1.2921995303	
C	5.0000000000	8.5062307724	12.9219957650	
C	5.0000000000	10.9657207118	2.5844052993	
C	5.0000000000	10.9657207118	10.3376054848	
C	5.0000000000	10.9657207118	14.2142056931	
C	5.0000000000	12.1954800944	3.2304950131	
C	5.0000000000	12.1954800944	10.9836956608	
C	5.0000000000	12.1954800944	14.8602958691	
C	5.0000000000	9.7359613293	0.6461005738	
C	5.0000000000	9.7359613293	4.5227056344	
C	5.0000000000	9.7359613293	12.2759055889	
C	5.0000000000	10.9657207118	1.2921995303	
C	5.0000000000	10.9657207118	5.1687948863	
C	5.0000000000	10.9657207118	12.9219957650	
C	5.0000000000	13.4252403504	2.5844052993	
C	5.0000000000	13.4252403504	6.4610057386	
C	5.0000000000	13.4252403504	10.3376054848	
C	5.0000000000	13.4252403504	14.2142056931	
C	5.0000000000	14.6549997330	3.2304950131	
C	5.0000000000	14.6549997330	7.1070949904	
C	5.0000000000	14.6549997330	10.9836956608	
C	5.0000000000	14.6549997330	14.8602958691	
C	5.0000000000	12.1954800944	0.6461005738	
C	5.0000000000	12.1954800944	4.5227056344	
C	5.0000000000	12.1954800944	12.2759055889	
C	5.0000000000	13.4252403504	1.2921995303	
C	5.0000000000	13.4252403504	5.1687948863	
C	5.0000000000	13.4252403504	9.0453955567	
C	5.0000000000	13.4252403504	12.9219957650	
C	5.0000000000	15.8847599890	2.5844052993	
C	5.0000000000	15.8847599890	6.4610057386	
C	5.0000000000	15.8847599890	10.3376054848	
C	5.0000000000	15.8847599890	14.2142056931	
C	5.0000000000	17.1145184981	3.2304950131	
C	5.0000000000	17.1145184981	7.1070949904	
C	5.0000000000	17.1145184981	10.9836956608	
C	5.0000000000	14.6549997330	0.6461005738	
C	5.0000000000	14.6549997330	4.5227056344	
C	5.0000000000	14.6549997330	8.3993053806	
C	5.0000000000	14.6549997330	12.2759055889	
C	5.0000000000	15.8847599890	1.2921995303	
C	5.0000000000	15.8847599890	5.1687948863	
C	5.0000000000	15.8847599890	9.0453955567	
C	5.0000000000	15.8847599890	12.9219957650	
C	5.0000000000	18.3442787541	2.5844052993	
C	5.0000000000	18.3442787541	6.4610057386	
C	5.0000000000	18.3442787541	10.3376054848	
C	5.0000000000	19.5740390102	3.2304950131	
C	5.0000000000	19.5740390102	7.1070949904	
C	5.0000000000	19.5740390102	10.9836956608	
C	5.0000000000	17.1145184981	4.5227056344	
C	5.0000000000	17.1145184981	8.3993053806	
C	5.0000000000	17.1145184981	12.2759055889	
C	5.0000000000	18.3442787541	5.1687948863	
C	5.0000000000	18.3442787541	9.0453955567	
C	5.0000000000	18.3442787541	12.9219957650	
C	5.0000000000	20.8037678200	6.4610057386	
C	5.0000000000	20.8037678200	10.3376054848	
C	5.0000000000	22.0335280761	7.1070949904	
C	5.0000000000	22.0335280761	10.9836956608	
C	5.0000000000	19.5740390102	4.5227056344	
C	5.0000000000	19.5740390102	8.3993053806	
C	5.0000000000	19.5740390102	12.2759055889	
C	5.0000000000	20.8037678200	5.1687948863	
C	5.0000000000	20.8037678200	9.0453955567	
C	5.0000000000	23.2632883321	6.4610057386	
C	5.0000000000	23.2632883321	10.3376054848	
C	5.0000000000	22.0335280761	4.5227056344	
C	5.0000000000	22.0335280761	8.3993053806	
C	5.0000000000	23.2632883321	5.1687948863	
C	5.0000000000	23.2632883321	9.0453955567	
H	5.0000000000	5.1027537601	3.0803465639	
H	5.0000000000	5.1027537601	14.7101471888	
H	5.0000000000	7.2764709531	4.2223930238	
H	5.0000000000	5.1027537601	0.7962505828	
H	5.0000000000	5.1027537601	12.4260542692	
H	5.0000000000	8.7920035188	10.4877541651	
H	5.0000000000	7.2764709531	11.2840078093	
H	5.0000000000	10.9657207118	9.3457077052	
H	5.0000000000	8.7920035188	5.0186466681	
H	5.0000000000	10.9657207118	6.1606931279	
H	5.0000000000	12.4812825399	6.9569467722	
H	5.0000000000	12.4812825399	8.5494540609	
H	5.0000000000	16.8287177995	14.7101471888	
H	5.0000000000	16.8287177995	0.7962505828	
H	5.0000000000	18.3442787541	1.5925074042	
H	5.0000000000	20.5179968207	2.7345537485	
H	5.0000000000	18.3442787541	13.9138935445	
H	5.0000000000	22.0335280761	11.9755934404	
H	5.0000000000	20.5179968207	12.7718470846	
H	5.0000000000	24.2072461426	6.9569467722	
H	5.0000000000	24.2072461426	10.8335469805	
H	5.0000000000	22.0335280761	3.5308073928	
H	5.0000000000	24.2072461426	4.6728538526	
H	5.0000000000	24.2072461426	8.5494540609	
K_POINTS (automatic)
1 1 10 0 0 0
CELL_PARAMETERS cubic
10.000000   0.0000000   0.000000
 0.000000  29.3100000   0.000000
 0.000000   0.0000000   15.506400
