 &control
    calculation='nscf'
    pseudo_dir = '/home/zfwang/hp_home/MySoftware/qe-6.3/pseudo',
    outdir='/home/zfwang/scratch/GNRDATASET/AGNR/V9_m1'
    prefix='V9_m1'
    wf_collect = .true.
 /
 &system
    ibrav = 0,
    celldm(1) = 1.8897261249935,
    nat = 108,
    ntyp = 2,
    ecutwfc=40.0,
    ecutrho=480.d0,
    nbnd=500,nosym=.true.,
    occupations='smearing', smearing='marzari-vanderbilt', degauss=0.01
 /
 &electrons
    conv_thr = 1.0D-5
    mixing_beta = 0.7
 /
ATOMIC_SPECIES
C  12.0107  C.pbe-n-rrkjus_psl.0.1.UPF
H  1.00794  H.pbe-rrkjus_psl.0.1.UPF
ATOMIC_POSITIONS (Angstrom)
C        5.000001002   6.044852137   2.834427835
C        4.999999851   6.051825667  15.417814983
C        5.000000348   7.241530116   3.518895736
C        5.000000912   7.241883839  16.144040580
C        4.999999893   6.051825784   1.451784678
C        4.999999817   6.044850757  14.035172825
C        5.000000923   8.465071986   2.841182017
C        4.999999395   8.473569707  15.446497342
C        5.000001328   9.723872983   3.546377831
C        4.999999576   9.765470754  11.924689679
C        5.000001052   9.713580717  16.161491168
C        5.000000130   7.241885257   0.725558034
C        4.999999982   7.241531015  13.350704957
C        5.000001092   8.473568741   1.423102606
C        4.999999468   8.465072063  14.028418150
C        5.000001114  10.942397375   2.835171913
C        4.999999550  10.954199640  11.243283554
C        5.000000560  10.944892116  15.461637843
C        5.000000995  12.177780720   3.537123209
C        4.999999486  12.178108175  11.929378396
C        5.000000022  12.173551116  16.163190186
C        5.000000903   9.713581181   0.708111028
C        4.999999796   9.765469686   4.944910207
C        4.999999481   9.723874150  13.323221598
C        5.000001110  10.944893025   1.407963181
C        5.000000513  10.954200308   5.626319163
C        4.999999330  10.942399332  14.034427503
C        5.000000459  13.418253102   2.821915291
C        4.999999501  13.485158118   7.007502191
C        5.000000286  13.438426418  11.236881950
C        5.000001128  13.411163077  15.452106032
C        5.000000322  14.649456799   3.514651786
C        4.999998836  14.669405165   7.715305488
C        4.999999969  14.660552259  11.949380782
C        5.000001277  14.640585984  16.150094529
C        5.000001256  12.173551691   0.706411160
C        5.000001141  12.178107852   4.940222156
C        4.999999063  12.177782277  13.332477353
C        5.000001156  13.411163414   1.417494640
C        5.000000160  13.438426654   5.632719887
C        4.999999162  13.485158822   9.862101518
C        5.000000186  13.418254163  14.047685060
C        4.999999126  15.871556507   2.802158495
C        4.999998312  15.898851876   7.017337621
C        5.000000932  15.891767861  11.256675479
C        4.999999776  15.824798353  15.442217392
C        4.999997800  17.131863910   3.494645938
C        4.999997663  17.136466182   7.728403701
C        5.000000802  17.132242989  11.971865359
C        5.000000340  14.640584327   0.719502966
C        4.999999654  14.660554479   4.920219268
C        4.999998445  14.669405731   9.154297693
C        5.000000082  14.649455091  13.354948189
C        5.000000591  15.824796948   1.427381482
C        4.999998212  15.891771504   5.612925674
C        5.000000453  15.898851452   9.852265929
C        5.000001096  15.871556494  14.067440545
C        4.999999483  18.355793318   2.808640366
C        4.999999292  18.365129259   7.026862077
C        5.000001622  18.367610087  11.269930788
C        4.999998795  19.544508830   3.489985676
C        5.000000605  19.596441367   7.726708051
C        5.000000866  19.586139784  11.981111555
C        4.999997882  17.132243880   4.897734207
C        5.000000058  17.136465546   9.141199211
C        5.000001183  17.131863448  13.374953869
C        4.999998509  18.367612400   5.599669185
C        5.000000435  18.365129630   9.842738974
C        5.000000064  18.355792049  14.060959903
C        4.999999379  20.836442973   7.011728303
C        5.000000295  20.844929532  11.275925777
C        4.999999360  22.068125315   7.709259992
C        5.000000275  22.068464513  11.953628500
C        4.999998786  19.586141506   4.888488550
C        4.999999444  19.596439708   9.142894111
C        5.000000611  19.544506470  13.379616186
C        4.999999714  20.844930425   5.593675412
C        4.999999532  20.836441827   9.857873310
C        5.000000746  23.258181854   6.983033990
C        5.000000063  23.265154851  11.269186388
C        5.000000111  22.068465622   4.915972353
C        4.999999744  22.068125493   9.160341213
C        5.000000142  23.265154325   5.600414207
C        4.999999581  23.258181391   9.886566869
H        4.999999805   5.099309816   3.375196891
H        4.999999655   5.106313673  15.940218623
H        5.000001416   7.215447711   4.601162516
H        4.999999582   5.106313394   0.929381654
H        4.999999575   5.099310354  13.494404474
H        4.999999026   8.846897444  11.354025423
H        5.000000103   7.215446920  12.268439224
H        4.999999633  10.912599809  10.159350697
H        4.999999355   8.846896973   5.515576248
H        4.999999588  10.912599931   6.710252504
H        5.000000350  12.549656933   7.545861454
H        4.999999429  12.549658670   9.323741260
H        5.000001052  16.760278284  15.980523329
H        4.999999818  16.760279401   0.889078516
H        4.999998982  18.397405338   1.724744812
H        5.000000037  20.463087531   2.919335617
H        5.000000427  18.397404813  15.144855386
H        5.000000355  22.094559193  13.035881443
H        5.000000237  20.463086426  13.950264830
H        4.999999700  24.203686098   7.505446643
H        5.000000285  24.210684632  11.809959943
H        4.999999830  22.094560246   3.833719356
H        5.000000271  24.210684986   5.059641339
H        5.000000098  24.203687199   9.364154728
K_POINTS (automatic)
1 1 50 0 0 0
CELL_PARAMETERS cubic
10.000000   0.0000000   0.000000
 0.000000  29.3100000   0.000000
 0.000000   0.0000000   16.869600
