 &bands
       prefix='AGNR_OH_26',
       outdir='/home/zfwang/scratch/GNRDATASET/AGNR/AGNR_OH_26',
       filband='bands_AGNR_OH_26.dat',
       lsym=.true.,
 /
