 &bands
       prefix='AGNR_OH_22',
       outdir='/home/zfwang/scratch/GNRDATASET/AGNR/AGNR_OH_22',
       filband='bands_AGNR_OH_22.dat',
       lsym=.true.,
 /
