 &control
    calculation='nscf'
    pseudo_dir = '/home/zfwang/hp_home/MySoftware/qe-6.3/pseudo',
    outdir='/home/zfwang/scratch/GNRDATASET/AGNR/AGNR_OH_19'
    prefix='AGNR_OH_19'
    wf_collect = .true.
 /
 &system
    ibrav = 0,
    celldm(1) = 1.8897261249935,
    nat = 46,
    ntyp = 3,
    ecutwfc=40.0,
    ecutrho=480.d0,
    nbnd=500,nosym=.true.,
    occupations='smearing', smearing='marzari-vanderbilt', degauss=0.01
 /
 &electrons
    conv_thr = 1.0D-5
    mixing_beta = 0.7
 /
ATOMIC_SPECIES
C  12.0107  C.pbe-n-rrkjus_psl.0.1.UPF
O  18.9984  O.pbe-n-rrkjus_psl.0.1.UPF
H  1.00794  H.pbe-rrkjus_psl.0.1.UPF
ATOMIC_POSITIONS (Angstrom)
C	5.0000000000	6.0472084608	2.8400015068	
C	5.0000000000	7.2769553998	3.5499988365	
C	5.0000000000	6.0472084608	1.4199985951	
C	5.0000000000	8.5067023388	2.8400015068	
C	5.0000000000	9.7364497879	3.5499988365	
C	5.0000000000	7.2769553998	0.7100014558	
C	5.0000000000	8.5067023388	1.4199985951	
C	5.0000000000	10.9662309015	2.8400015068	
C	5.0000000000	12.1959773304	3.5499988365	
C	5.0000000000	9.7364497879	0.7100014558	
C	5.0000000000	10.9662309015	1.4199985951	
C	5.0000000000	13.4257247795	2.8400015068	
C	5.0000000000	14.6554712085	3.5499988365	
C	5.0000000000	12.1959773304	0.7100014558	
C	5.0000000000	13.4257247795	1.4199985951	
C	5.0000000000	15.8852523220	2.8400015068	
C	5.0000000000	17.1149997711	3.5499988365	
C	5.0000000000	14.6554712085	0.7100014558	
C	5.0000000000	15.8852523220	1.4199985951	
C	5.0000000000	18.3447462001	2.8400015068	
C	5.0000000000	19.5745273136	3.5499988365	
C	5.0000000000	17.1149997711	0.7100014558	
C	5.0000000000	18.3447462001	1.4199985951	
C	5.0000000000	20.8042757828	2.8400015068	
C	5.0000000000	22.0340222118	3.5499988365	
C	5.0000000000	19.5745273136	0.7100014558	
C	5.0000000000	20.8042757828	1.4199985951	
C	5.0000000000	23.2637686408	2.8400015068	
C	5.0000000000	24.4935497543	3.5499988365	
C	5.0000000000	22.0340222118	0.7100014558	
C	5.0000000000	23.2637686408	1.4199985951	
C	5.0000000000	25.7232961833	2.8400015068	
C	5.0000000000	26.9530446525	3.5499988365	
C	5.0000000000	24.4935497543	0.7100014558	
C	5.0000000000	25.7232961833	1.4199985951	
C	5.0000000000	28.1827910815	2.8400015068	
C	5.0000000000	26.9530446525	0.7100014558	
C	5.0000000000	28.1827910815	1.4199985951	
O	4.4000000000	4.7472084608	3.2000000000	
O	5.5000000000	4.7472084608	1.0100000000	
O	5.5000000000	29.4827910815	3.2000000000	
O	4.4000000000	29.4827910815	1.0100000000	
H	5.2700000000	4.1472084608	1.7800000000	
H	4.7930000000	4.5472084608	4.1000000000	
H	4.7930000000	29.6827910815	0.1600000000	
H	5.2700000000	30.0827910815	2.4770000000	
K_POINTS (automatic)
1 1 50 0 0 0
CELL_PARAMETERS cubic
10.000000   0.0000000   0.000000
 0.000000  34.2300000   0.000000
 0.000000   0.0000000   4.260000
