 &control
    calculation='relax'
    pseudo_dir = '/home/zfwang/hp_home/MySoftware/qe-6.3/pseudo'
    outdir='/home/zfwang/scratch/GNRDATASET/AGNR/AGNR_OH_22',
    prefix='AGNR_OH_22',
    tstress = .true.
    tprnfor = .true.
    etot_conv_thr = 1.0D-4,
    forc_conv_thr = 1.0D-3,
    wf_collect = .true.,
 /
 &system
    ibrav = 0,
    celldm(1) = 1.8897261249935,
    nat = 52,
    ntyp = 3,
    ecutwfc =40.d0
    ecutrho =480.d0
    occupations='smearing', smearing='marzari-vanderbilt', degauss=0.01
	nosym=.true
 /
 &electrons
    conv_thr = 1.0D-5
    mixing_beta = 0.7
 /
  &IONS
    ion_dynamics = 'bfgs'
	upscale = 1.0D4
	
 /
ATOMIC_SPECIES
C  12.0107  C.pbe-n-rrkjus_psl.0.1.UPF
O  18.9984  O.pbe-n-rrkjus_psl.0.1.UPF
H  1.00794  H.pbe-rrkjus_psl.0.1.UPF
ATOMIC_POSITIONS (Angstrom)
C     5.000000e+00  6.047557e+00  2.840002e+00
C     5.000000e+00  7.277303e+00  3.549999e+00
C     5.000000e+00  6.047557e+00  1.419999e+00
C     5.000000e+00  8.507086e+00  2.840002e+00
C     5.000000e+00  9.736831e+00  3.549999e+00
C     5.000000e+00  7.277303e+00  7.100015e-01
C     5.000000e+00  8.507086e+00  1.419999e+00
C     5.000000e+00  1.096658e+01  2.840002e+00
C     5.000000e+00  1.219632e+01  3.549999e+00
C     5.000000e+00  9.736831e+00  7.100015e-01
C     5.000000e+00  1.096658e+01  1.419999e+00
C     5.000000e+00  1.342611e+01  2.840002e+00
C     5.000000e+00  1.465585e+01  3.549999e+00
C     5.000000e+00  1.219632e+01  7.100015e-01
C     5.000000e+00  1.342611e+01  1.419999e+00
C     5.000000e+00  1.588560e+01  2.840002e+00
C     5.000000e+00  1.711538e+01  3.549999e+00
C     5.000000e+00  1.465585e+01  7.100015e-01
C     5.000000e+00  1.588560e+01  1.419999e+00
C     5.000000e+00  1.834513e+01  2.840002e+00
C     5.000000e+00  1.957487e+01  3.549999e+00
C     5.000000e+00  1.711538e+01  7.100015e-01
C     5.000000e+00  1.834513e+01  1.419999e+00
C     5.000000e+00  2.080462e+01  2.840002e+00
C     5.000000e+00  2.203440e+01  3.549999e+00
C     5.000000e+00  1.957487e+01  7.100015e-01
C     5.000000e+00  2.080462e+01  1.419999e+00
C     5.000000e+00  2.326415e+01  2.840002e+00
C     5.000000e+00  2.449389e+01  3.549999e+00
C     5.000000e+00  2.203440e+01  7.100015e-01
C     5.000000e+00  2.326415e+01  1.419999e+00
C     5.000000e+00  2.572368e+01  2.840002e+00
C     5.000000e+00  2.695342e+01  3.549999e+00
C     5.000000e+00  2.449389e+01  7.100015e-01
C     5.000000e+00  2.572368e+01  1.419999e+00
C     5.000000e+00  2.818317e+01  2.840002e+00
C     5.000000e+00  2.941291e+01  3.549999e+00
C     5.000000e+00  2.695342e+01  7.100015e-01
C     5.000000e+00  2.818317e+01  1.419999e+00
C     5.000000e+00  3.064270e+01  2.840002e+00
C     5.000000e+00  3.187244e+01  3.549999e+00
C     5.000000e+00  2.941291e+01  7.100015e-01
C     5.000000e+00  3.064270e+01  1.419999e+00
C     5.000000e+00  3.187244e+01  7.100015e-01
O     4.400000e+00  4.747557e+00  3.200000e+00
O     5.500000e+00  4.747557e+00  1.010000e+00
O     4.400000e+00  3.317244e+01  1.070000e+00
O     5.500000e+00  3.317244e+01  3.140000e+00
H     4.793000e+00  4.547557e+00  4.100000e+00
H     5.270000e+00  4.147557e+00  1.780000e+00
H     4.793000e+00  3.337244e+01  1.700000e-01
H     5.270000e+00  3.377244e+01  2.370000e+00
K_POINTS (automatic)
1 1 10 0 0 0
CELL_PARAMETERS cubic
10.000000   0.0000000   0.000000
 0.000000  37.9200000   0.000000
 0.000000   0.0000000   4.260000
