 &bands
       prefix='AGNR_OH_21',
       outdir='/home/zfwang/scratch/GNRDATASET/AGNR/AGNR_OH_21',
       filband='bands_AGNR_OH_21.dat',
       lsym=.true.,
 /
