 &control
    calculation='nscf'
    pseudo_dir = '/home/zfwang/hp_home/MySoftware/qe-6.3/pseudo',
    outdir='/home/zfwang/scratch/GNRDATASET/AGNR/AGNR_OH_20'
    prefix='AGNR_OH_20'
    wf_collect = .true.
 /
 &system
    ibrav = 0,
    celldm(1) = 1.8897261249935,
    nat = 48,
    ntyp = 3,
    ecutwfc=40.0,
    ecutrho=480.d0,
    nbnd=500,nosym=.true.,
    occupations='smearing', smearing='marzari-vanderbilt', degauss=0.01
 /
 &electrons
    conv_thr = 1.0D-5
    mixing_beta = 0.7
 /
ATOMIC_SPECIES
C  12.0107  C.pbe-n-rrkjus_psl.0.1.UPF
O  18.9984  O.pbe-n-rrkjus_psl.0.1.UPF
H  1.00794  H.pbe-rrkjus_psl.0.1.UPF
ATOMIC_POSITIONS (Angstrom)
C     5.000000e+00  6.047313e+00  2.840002e+00
C     5.000000e+00  7.277066e+00  3.549999e+00
C     5.000000e+00  6.047313e+00  1.419999e+00
C     5.000000e+00  8.506818e+00  2.840002e+00
C     5.000000e+00  9.736571e+00  3.549999e+00
C     5.000000e+00  7.277066e+00  7.100015e-01
C     5.000000e+00  8.506818e+00  1.419999e+00
C     5.000000e+00  1.096632e+01  2.840002e+00
C     5.000000e+00  1.219611e+01  3.549999e+00
C     5.000000e+00  9.736571e+00  7.100015e-01
C     5.000000e+00  1.096632e+01  1.419999e+00
C     5.000000e+00  1.342586e+01  2.840002e+00
C     5.000000e+00  1.465562e+01  3.549999e+00
C     5.000000e+00  1.219611e+01  7.100015e-01
C     5.000000e+00  1.342586e+01  1.419999e+00
C     5.000000e+00  1.588537e+01  2.840002e+00
C     5.000000e+00  1.711512e+01  3.549999e+00
C     5.000000e+00  1.465562e+01  7.100015e-01
C     5.000000e+00  1.588537e+01  1.419999e+00
C     5.000000e+00  1.834488e+01  2.840002e+00
C     5.000000e+00  1.957463e+01  3.549999e+00
C     5.000000e+00  1.711512e+01  7.100015e-01
C     5.000000e+00  1.834488e+01  1.419999e+00
C     5.000000e+00  2.080438e+01  2.840002e+00
C     5.000000e+00  2.203413e+01  3.549999e+00
C     5.000000e+00  1.957463e+01  7.100015e-01
C     5.000000e+00  2.080438e+01  1.419999e+00
C     5.000000e+00  2.326389e+01  2.840002e+00
C     5.000000e+00  2.449368e+01  3.549999e+00
C     5.000000e+00  2.203413e+01  7.100015e-01
C     5.000000e+00  2.326389e+01  1.419999e+00
C     5.000000e+00  2.572343e+01  2.840002e+00
C     5.000000e+00  2.695318e+01  3.549999e+00
C     5.000000e+00  2.449368e+01  7.100015e-01
C     5.000000e+00  2.572343e+01  1.419999e+00
C     5.000000e+00  2.818293e+01  2.840002e+00
C     5.000000e+00  2.941269e+01  3.549999e+00
C     5.000000e+00  2.695318e+01  7.100015e-01
C     5.000000e+00  2.818293e+01  1.419999e+00
C     5.000000e+00  2.941269e+01  7.100015e-01
O     4.400000e+00  4.747313e+00  3.200000e+00
O     5.500000e+00  4.747313e+00  1.010000e+00
O     4.400000e+00  3.071269e+01  1.070000e+00
O     5.500000e+00  3.071269e+01  3.140000e+00
H     4.793000e+00  4.547313e+00  4.100000e+00
H     5.270000e+00  4.147313e+00  1.780000e+00
H     4.793000e+00  3.091269e+01  1.700000e-01
H     5.270000e+00  3.131269e+01  2.370000e+00
K_POINTS (automatic)
1 1 50 0 0 0
CELL_PARAMETERS cubic
10.000000   0.0000000   0.000000
 0.000000  35.4600000   0.000000
 0.000000   0.0000000   4.260000
