 &control
    calculation='nscf'
    pseudo_dir = '/home/zfwang/hp_home/MySoftware/qe-6.3/pseudo',
    outdir='/home/zfwang/scratch/GNRDATASET/AGNR/AGNR_OH_23'
    prefix='AGNR_OH_23'
    wf_collect = .true.
 /
 &system
    ibrav = 0,
    celldm(1) = 1.8897261249935,
    nat = 54,
    ntyp = 3,
    ecutwfc=40.0,
    ecutrho=480.d0,
    nbnd=500,nosym=.true.,
    occupations='smearing', smearing='marzari-vanderbilt', degauss=0.01
 /
 &electrons
    conv_thr = 1.0D-5
    mixing_beta = 0.7
 /
ATOMIC_SPECIES
C  12.0107  C.pbe-n-rrkjus_psl.0.1.UPF
O  18.9984  O.pbe-n-rrkjus_psl.0.1.UPF
H  1.00794  H.pbe-rrkjus_psl.0.1.UPF
ATOMIC_POSITIONS (Angstrom)
C	5.0000000000	6.0476966220	2.8400015068	
C	5.0000000000	7.2774370124	3.5499988365	
C	5.0000000000	6.0476966220	1.4199985951	
C	5.0000000000	8.5071779862	2.8400015068	
C	5.0000000000	9.7369574631	3.5499988365	
C	5.0000000000	7.2774370124	0.7100014558	
C	5.0000000000	8.5071779862	1.4199985951	
C	5.0000000000	10.9666978536	2.8400015068	
C	5.0000000000	12.1964779139	3.5499988365	
C	5.0000000000	9.7369574631	0.7100014558	
C	5.0000000000	10.9666978536	1.4199985951	
C	5.0000000000	13.4262194711	2.8400015068	
C	5.0000000000	14.6559598615	3.5499988365	
C	5.0000000000	12.1964779139	0.7100014558	
C	5.0000000000	13.4262194711	1.4199985951	
C	5.0000000000	15.8857399218	2.8400015068	
C	5.0000000000	17.1154803122	3.5499988365	
C	5.0000000000	14.6559598615	0.7100014558	
C	5.0000000000	15.8857399218	1.4199985951	
C	5.0000000000	18.3452603725	2.8400015068	
C	5.0000000000	19.5750007629	3.5499988365	
C	5.0000000000	17.1154803122	0.7100014558	
C	5.0000000000	18.3452603725	1.4199985951	
C	5.0000000000	20.8047411534	2.8400015068	
C	5.0000000000	22.0345212137	3.5499988365	
C	5.0000000000	19.5750007629	0.7100014558	
C	5.0000000000	20.8047411534	1.4199985951	
C	5.0000000000	23.2642616041	2.8400015068	
C	5.0000000000	24.4940416644	3.5499988365	
C	5.0000000000	22.0345212137	0.7100014558	
C	5.0000000000	23.2642616041	1.4199985951	
C	5.0000000000	25.7237820548	2.8400015068	
C	5.0000000000	26.9535224452	3.5499988365	
C	5.0000000000	24.4940416644	0.7100014558	
C	5.0000000000	25.7237820548	1.4199985951	
C	5.0000000000	28.1833025055	2.8400015068	
C	5.0000000000	29.4130428960	3.5499988365	
C	5.0000000000	26.9535224452	0.7100014558	
C	5.0000000000	28.1833025055	1.4199985951	
C	5.0000000000	30.6428229563	2.8400015068	
C	5.0000000000	31.8725633467	3.5499988365	
C	5.0000000000	29.4130428960	0.7100014558	
C	5.0000000000	30.6428229563	1.4199985951	
C	5.0000000000	33.1023060707	2.8400015068	
C	5.0000000000	31.8725633467	0.7100014558	
C	5.0000000000	33.1023060707	1.4199985951	
O	4.4000000000	4.7476966220	3.2000000000	
O	5.5000000000	4.7476966220	1.0100000000	
O	5.5000000000	34.4023060707	3.2000000000	
O	4.4000000000	34.4023060707	1.0100000000	
H	5.2700000000	4.1476966220	1.7800000000	
H	4.7930000000	4.5476966220	4.1000000000	
H	4.7930000000	34.6023060707	0.1600000000	
H	5.2700000000	35.0023060707	2.4770000000	
K_POINTS (automatic)
1 1 50 0 0 0
CELL_PARAMETERS cubic
10.000000   0.0000000   0.000000
 0.000000  39.1500000   0.000000
 0.000000   0.0000000   4.260000
