 &bands
       prefix='AGNR_OH_23',
       outdir='/home/zfwang/scratch/GNRDATASET/AGNR/AGNR_OH_23',
       filband='bands_AGNR_OH_23.dat',
       lsym=.true.,
 /
