 &control
    calculation='nscf'
    pseudo_dir = '/home/zfwang/hp_home/MySoftware/qe-6.3/pseudo',
    outdir='/home/zfwang/scratch/GNRDATASET/AGNR/AGNR_OH_18'
    prefix='AGNR_OH_18'
    wf_collect = .true.
 /
 &system
    ibrav = 0,
    celldm(1) = 1.8897261249935,
    nat = 44,
    ntyp = 3,
    ecutwfc=40.0,
    ecutrho=480.d0,
    nbnd=500,nosym=.true.,
    occupations='smearing', smearing='marzari-vanderbilt', degauss=0.01
 /
 &electrons
    conv_thr = 1.0D-5
    mixing_beta = 0.7
 /
ATOMIC_SPECIES
C  12.0107  C.pbe-n-rrkjus_psl.0.1.UPF
O  18.9984  O.pbe-n-rrkjus_psl.0.1.UPF
H  1.00794  H.pbe-rrkjus_psl.0.1.UPF
ATOMIC_POSITIONS (Angstrom)
C  5.0000000000   6.0470851064    2.8400015068
C  5.0000000000   7.2768301964    3.5499988365
C  5.0000000000   6.0470851064    1.4199985951
C  5.0000000000   8.5065752864    2.8400015068
C  5.0000000000   9.7363528311    3.5499988365
C  5.0000000000   7.2768301964    0.7100014558
C  5.0000000000   8.5065752864    1.4199985951
C  5.0000000000   10.9660979211   2.8400015068
C  5.0000000000   12.1958430111   3.5499988365
C  5.0000000000   9.7363528311    0.7100014558
C  5.0000000000   10.9660979211   1.4199985951
C  5.0000000000   13.4256205559   2.8400015068
C  5.0000000000   14.6553656459   3.5499988365
C  5.0000000000   12.1958430111   0.7100014558
C  5.0000000000   13.4256205559   1.4199985951
C  5.0000000000   15.8851107359   2.8400015068
C  5.0000000000   17.1148892641   3.5499988365
C  5.0000000000   14.6553656459   0.7100014558
C  5.0000000000   15.8851107359   1.4199985951
C  5.0000000000   18.3446343541   2.8400015068
C  5.0000000000   19.5743794441   3.5499988365
C  5.0000000000   17.1148892641   0.7100014558
C  5.0000000000   18.3446343541   1.4199985951
C  5.0000000000   20.8041579723   2.8400015068
C  5.0000000000   22.0339010954   3.5499988365
C  5.0000000000   19.5743794441   0.7100014558
C  5.0000000000   20.8041579723   1.4199985951
C  5.0000000000   23.2636461854   2.8400015068
C  5.0000000000   24.4934247136   3.5499988365
C  5.0000000000   22.0339010954   0.7100014558
C  5.0000000000   23.2636461854   1.4199985951
C  5.0000000000   25.7231698036   2.8400015068
C  5.0000000000   26.9529148936   3.5499988365
C  5.0000000000   24.4934247136   0.7100014558
C  5.0000000000   25.7231698036   1.4199985951
C  5.0000000000   26.9529148936   0.7100014558
O  4.4000000000   4.74708510640   3.2000000000
O  5.5000000000   4.74708510640   1.0100000000
O  4.4000000000   28.2529148936   1.0700000000
O  5.5000000000   28.2529148936   3.1400002414
H  4.7930000000   4.54708510640   4.1000000000
H  5.2700000000   4.14708510640   1.7800000000
H  4.7930000000   28.4529148936   0.1700000000
H  5.2700000000   28.8529148936   2.3700002414
K_POINTS (automatic)
1 1 50 0 0 0
CELL_PARAMETERS cubic
10.000000   0.0000000   0.000000
 0.000000  33.0000000   0.000000
 0.000000   0.0000000   4.260000
