 &control
    calculation='relax'
    pseudo_dir = '/home/zfwang/hp_home/MySoftware/qe-6.3/pseudo'
    outdir='/home/zfwang/scratch/GNRDATASET/AGNR/AGNR_OH_26',
    prefix='AGNR_OH_26',
    tstress = .true.
    tprnfor = .true.
    etot_conv_thr = 1.0D-4,
    forc_conv_thr = 1.0D-3,
    wf_collect = .true.,
 /
 &system
    ibrav = 0,
    celldm(1) = 1.8897261249935,
    nat = 60,
    ntyp = 3,
    ecutwfc =40.d0
    ecutrho =480.d0
    occupations='smearing', smearing='marzari-vanderbilt', degauss=0.01
	nosym=.true
 /
 &electrons
    conv_thr = 1.0D-5
    mixing_beta = 0.7
 /
  &IONS
    ion_dynamics = 'bfgs'
	upscale = 1.0D4
	
 /
ATOMIC_SPECIES
C  12.0107  C.pbe-n-rrkjus_psl.0.1.UPF
O  18.9984  O.pbe-n-rrkjus_psl.0.1.UPF
H  1.00794  H.pbe-rrkjus_psl.0.1.UPF
ATOMIC_POSITIONS (Angstrom)
C     5.000000e+00  6.048065e+00  2.840002e+00
C     5.000000e+00  7.277788e+00  3.549999e+00
C     5.000000e+00  6.048065e+00  1.419999e+00
C     5.000000e+00  8.507553e+00  2.840002e+00
C     5.000000e+00  9.737318e+00  3.549999e+00
C     5.000000e+00  7.277788e+00  7.100015e-01
C     5.000000e+00  8.507553e+00  1.419999e+00
C     5.000000e+00  1.096708e+01  2.840002e+00
C     5.000000e+00  1.219685e+01  3.549999e+00
C     5.000000e+00  9.737318e+00  7.100015e-01
C     5.000000e+00  1.096708e+01  1.419999e+00
C     5.000000e+00  1.342657e+01  2.840002e+00
C     5.000000e+00  1.465633e+01  3.549999e+00
C     5.000000e+00  1.219685e+01  7.100015e-01
C     5.000000e+00  1.342657e+01  1.419999e+00
C     5.000000e+00  1.588610e+01  2.840002e+00
C     5.000000e+00  1.711586e+01  3.549999e+00
C     5.000000e+00  1.465633e+01  7.100015e-01
C     5.000000e+00  1.588610e+01  1.419999e+00
C     5.000000e+00  1.834563e+01  2.840002e+00
C     5.000000e+00  1.957535e+01  3.549999e+00
C     5.000000e+00  1.711586e+01  7.100015e-01
C     5.000000e+00  1.834563e+01  1.419999e+00
C     5.000000e+00  2.080512e+01  2.840002e+00
C     5.000000e+00  2.203488e+01  3.549999e+00
C     5.000000e+00  1.957535e+01  7.100015e-01
C     5.000000e+00  2.080512e+01  1.419999e+00
C     5.000000e+00  2.326465e+01  2.840002e+00
C     5.000000e+00  2.449437e+01  3.549999e+00
C     5.000000e+00  2.203488e+01  7.100015e-01
C     5.000000e+00  2.326465e+01  1.419999e+00
C     5.000000e+00  2.572414e+01  2.840002e+00
C     5.000000e+00  2.695390e+01  3.549999e+00
C     5.000000e+00  2.449437e+01  7.100015e-01
C     5.000000e+00  2.572414e+01  1.419999e+00
C     5.000000e+00  2.818366e+01  2.840002e+00
C     5.000000e+00  2.941343e+01  3.549999e+00
C     5.000000e+00  2.695390e+01  7.100015e-01
C     5.000000e+00  2.818366e+01  1.419999e+00
C     5.000000e+00  3.064315e+01  2.840002e+00
C     5.000000e+00  3.187292e+01  3.549999e+00
C     5.000000e+00  2.941343e+01  7.100015e-01
C     5.000000e+00  3.064315e+01  1.419999e+00
C     5.000000e+00  3.310268e+01  2.840002e+00
C     5.000000e+00  3.433245e+01  3.549999e+00
C     5.000000e+00  3.187292e+01  7.100015e-01
C     5.000000e+00  3.310268e+01  1.419999e+00
C     5.000000e+00  3.556221e+01  2.840002e+00
C     5.000000e+00  3.679193e+01  3.549999e+00
C     5.000000e+00  3.433245e+01  7.100015e-01
C     5.000000e+00  3.556221e+01  1.419999e+00
C     5.000000e+00  3.679193e+01  7.100015e-01
O     4.400000e+00  4.748065e+00  3.200000e+00
O     5.500000e+00  4.748065e+00  1.010000e+00
O     4.400000e+00  3.809193e+01  1.070000e+00
O     5.500000e+00  3.809193e+01  3.140000e+00
H     4.793000e+00  4.548065e+00  4.100000e+00
H     5.270000e+00  4.148065e+00  1.780000e+00
H     4.793000e+00  3.829193e+01  1.700000e-01
H     5.270000e+00  3.869193e+01  2.370000e+00
K_POINTS (automatic)
1 1 10 0 0 0
CELL_PARAMETERS cubic
10.000000   0.0000000   0.000000
 0.000000  42.8400000   0.000000
 0.000000   0.0000000   4.260000
