 &bands
       prefix='AGNR_OH_24',
       outdir='/home/zfwang/scratch/GNRDATASET/AGNR/AGNR_OH_24',
       filband='bands_AGNR_OH_24.dat',
       lsym=.true.,
 /
