 &control
    calculation='relax'
    pseudo_dir = '/home/zfwang/hp_home/MySoftware/qe-6.3/pseudo'
    outdir='/home/zfwang/scratch/GNRDATASET/AGNR/A10',
    prefix='A10',
    tstress = .true.
    tprnfor = .true.
    etot_conv_thr = 1.0D-4,
    forc_conv_thr = 1.0D-3,
    wf_collect = .true.,
 /
 &system
    ibrav = 0,
    celldm(1) = 1.8897261249935,
    nat = 24,
    ntyp = 2,
    ecutwfc =40.d0
    ecutrho =480.d0
    occupations='smearing', smearing='marzari-vanderbilt', degauss=0.01
	nosym=.true
 /
 &electrons
    conv_thr = 1.0D-5
    mixing_beta = 0.7
 /
  &IONS
    ion_dynamics = 'bfgs'
	upscale = 1.0D4
	
 /
ATOMIC_SPECIES
C  12.0107  C.pbe-n-rrkjus_psl.0.1.UPF
H  1.00794  H.pbe-rrkjus_psl.0.1.UPF
ATOMIC_POSITIONS (Angstrom)
C	5.0000000000	6.0461033029	2.8400015068	
C	5.0000000000	7.2758528159	3.5499988365	
C	5.0000000000	6.0461033029	1.4199985951	
C	5.0000000000	8.5056023288	2.8400015068	
C	5.0000000000	9.7353753092	3.5499988365	
C	5.0000000000	7.2758528159	0.7100014558	
C	5.0000000000	8.5056023288	1.4199985951	
C	5.0000000000	10.9651248221	2.8400015068	
C	5.0000000000	12.1948743351	3.5499988365	
C	5.0000000000	9.7353753092	0.7100014558	
C	5.0000000000	10.9651248221	1.4199985951	
C	5.0000000000	13.4246245382	2.8400015068	
C	5.0000000000	14.6543968284	3.5499988365	
C	5.0000000000	12.1948743351	0.7100014558	
C	5.0000000000	13.4246245382	1.4199985951	
C	5.0000000000	15.8841470316	2.8400015068	
C	5.0000000000	17.1138972347	3.5499988365	
C	5.0000000000	14.6543968284	0.7100014558	
C	5.0000000000	15.8841470316	1.4199985951	
C	5.0000000000	17.1138972347	0.7100014558	
H	5.0000000000	5.1021249340	3.3850005407	
H	5.0000000000	5.1021249340	0.8749998152	
H	5.0000000000	18.0578749135	3.0049998026	
H	5.0000000000	18.0578749135	1.2550002993				
K_POINTS (automatic)
1 1 10 0 0 0
CELL_PARAMETERS cubic
10.000000   0.0000000   0.000000
 0.000000  23.1600000   0.000000
 0.000000   0.0000000   4.260000
