 &control
    calculation='nscf'
    pseudo_dir = '/home/zfwang/hp_home/MySoftware/qe-6.3/pseudo',
    outdir='/home/zfwang/scratch/GNRDATASET/AGNR/A11'
    prefix='A11'
    wf_collect = .true.
 /
 &system
    ibrav = 0,
    celldm(1) = 1.8897261249935,
    nat = 26,
    ntyp = 2,
    ecutwfc=40.0,
    ecutrho=480.d0,
    nbnd=500,nosym=.true.,
    occupations='smearing', smearing='marzari-vanderbilt', degauss=0.01
 /
 &electrons
    conv_thr = 1.0D-5
    mixing_beta = 0.7
 /
ATOMIC_SPECIES
C  12.0107  C.pbe-n-rrkjus_psl.0.1.UPF
H  1.00794  H.pbe-rrkjus_psl.0.1.UPF
ATOMIC_POSITIONS (Angstrom)
C	5.0000000000	6.0462076572	2.8400015068	
C	5.0000000000	7.2759758049	3.5499988365	
C	5.0000000000	6.0462076572	1.4199985951	
C	5.0000000000	8.5057199656	2.8400015068	
C	5.0000000000	9.7354881133	3.5499988365	
C	5.0000000000	7.2759758049	0.7100014558	
C	5.0000000000	8.5057199656	1.4199985951	
C	5.0000000000	10.9652315471	2.8400015068	
C	5.0000000000	12.1949996948	3.5499988365	
C	5.0000000000	9.7354881133	0.7100014558	
C	5.0000000000	10.9652315471	1.4199985951	
C	5.0000000000	13.4247678425	2.8400015068	
C	5.0000000000	14.6545112763	3.5499988365	
C	5.0000000000	12.1949996948	0.7100014558	
C	5.0000000000	13.4247678425	1.4199985951	
C	5.0000000000	15.8842794240	2.8400015068	
C	5.0000000000	17.1140228578	3.5499988365	
C	5.0000000000	14.6545112763	0.7100014558	
C	5.0000000000	15.8842794240	1.4199985951	
C	5.0000000000	18.3437910055	2.8400015068	
C	5.0000000000	17.1140228578	0.7100014558	
C	5.0000000000	18.3437910055	1.4199985951	
H	5.0000000000	5.1022416429	3.3850005407	
H	5.0000000000	5.1022416429	0.8749998152	
H	5.0000000000	19.2877577467	3.3850005407	
H	5.0000000000	19.2877577467	0.8749998152				
K_POINTS (automatic)
1 1 50 0 0 0
CELL_PARAMETERS cubic
10.000000   0.0000000   0.000000
 0.000000  24.3900000   0.000000
 0.000000   0.0000000   4.260000
