 &control
    calculation='nscf'
    pseudo_dir = '/home/zfwang/hp_home/MySoftware/qe-6.3/pseudo',
    outdir='/home/zfwang/scratch/GNRDATASET/AGNR/A12'
    prefix='A12'
    wf_collect = .true.
 /
 &system
    ibrav = 0,
    celldm(1) = 1.8897261249935,
    nat = 28,
    ntyp = 2,
    ecutwfc=40.0,
    ecutrho=480.d0,
    nbnd=500,nosym=.true.,
    occupations='smearing', smearing='marzari-vanderbilt', degauss=0.01
 /
 &electrons
    conv_thr = 1.0D-5
    mixing_beta = 0.7
 /
ATOMIC_SPECIES
C  12.0107  C.pbe-n-rrkjus_psl.0.1.UPF
H  1.00794  H.pbe-rrkjus_psl.0.1.UPF
ATOMIC_POSITIONS (Angstrom)
C	5.0000000000	6.0463458131	2.8400015068	
C	5.0000000000	7.2761056732	3.5499988365	
C	5.0000000000	6.0463458131	1.4199985951	
C	5.0000000000	8.5058659151	2.8400015068	
C	5.0000000000	9.7356001967	3.5499988365	
C	5.0000000000	7.2761056732	0.7100014558	
C	5.0000000000	8.5058659151	1.4199985951	
C	5.0000000000	10.9653604386	2.8400015068	
C	5.0000000000	12.1951206805	3.5499988365	
C	5.0000000000	9.7356001967	0.7100014558	
C	5.0000000000	10.9653604386	1.4199985951	
C	5.0000000000	13.4248801588	2.8400015068	
C	5.0000000000	14.6546411642	3.5499988365	
C	5.0000000000	12.1951206805	0.7100014558	
C	5.0000000000	13.4248801588	1.4199985951	
C	5.0000000000	15.8844006425	2.8400015068	
C	5.0000000000	17.1141356877	3.5499988365	
C	5.0000000000	14.6546411642	0.7100014558	
C	5.0000000000	15.8844006425	1.4199985951	
C	5.0000000000	18.3438951660	2.8400015068	
C	5.0000000000	19.5736546443	3.5499988365	
C	5.0000000000	17.1141356877	0.7100014558	
C	5.0000000000	18.3438951660	1.4199985951	
C	5.0000000000	19.5736546443	0.7100014558	
H	5.0000000000	5.1023769181	3.3850005407	
H	5.0000000000	5.1023769181	0.8749998152	
H	5.0000000000	20.5176243029	3.0049998026	
H	5.0000000000	20.5176243029	1.2550002993				
K_POINTS (automatic)
1 1 50 0 0 0
CELL_PARAMETERS cubic
10.000000   0.0000000   0.000000
 0.000000  25.6200000   0.000000
 0.000000   0.0000000   4.260000
