 &bands
       prefix='A12',
       outdir='/home/zfwang/scratch/GNRDATASET/AGNR/A12',
       filband='bands_A12.dat',
       lsym=.true.,
 /
