 &control
    calculation='nscf'
    pseudo_dir = '/home/zfwang/hp_home/MySoftware/qe-6.3/pseudo',
    outdir='/home/zfwang/scratch/GNRDATASET/AGNR/A14'
    prefix='A14'
    wf_collect = .true.
 /
 &system
    ibrav = 0,
    celldm(1) = 1.8897261249935,
    nat = 32,
    ntyp = 2,
    ecutwfc=40.0,
    ecutrho=480.d0,
    nbnd=500,nosym=.true.,
    occupations='smearing', smearing='marzari-vanderbilt', degauss=0.01
 /
 &electrons
    conv_thr = 1.0D-5
    mixing_beta = 0.7
 /
ATOMIC_SPECIES
C  12.0107  C.pbe-n-rrkjus_psl.0.1.UPF
H  1.00794  H.pbe-rrkjus_psl.0.1.UPF
ATOMIC_POSITIONS (Angstrom)
C	5.0000000000	6.0465786531	2.8400015068	
C	5.0000000000	7.2763419573	3.5499988365	
C	5.0000000000	6.0465786531	1.4199985951	
C	5.0000000000	8.5061060984	2.8400015068	
C	5.0000000000	9.7358417866	3.5499988365	
C	5.0000000000	7.2763419573	0.7100014558	
C	5.0000000000	8.5061060984	1.4199985951	
C	5.0000000000	10.9656050909	2.8400015068	
C	5.0000000000	12.1953683951	3.5499988365	
C	5.0000000000	9.7358417866	0.7100014558	
C	5.0000000000	10.9656050909	1.4199985951	
C	5.0000000000	13.4251325362	2.8400015068	
C	5.0000000000	14.6548682244	3.5499988365	
C	5.0000000000	12.1953683951	0.7100014558	
C	5.0000000000	13.4251325362	1.4199985951	
C	5.0000000000	15.8846315286	2.8400015068	
C	5.0000000000	17.1143948328	3.5499988365	
C	5.0000000000	14.6548682244	0.7100014558	
C	5.0000000000	15.8846315286	1.4199985951	
C	5.0000000000	18.3441581371	2.8400015068	
C	5.0000000000	19.5738946621	3.5499988365	
C	5.0000000000	17.1143948328	0.7100014558	
C	5.0000000000	18.3441581371	1.4199985951	
C	5.0000000000	20.8036579664	2.8400015068	
C	5.0000000000	22.0334212706	3.5499988365	
C	5.0000000000	19.5738946621	0.7100014558	
C	5.0000000000	20.8036579664	1.4199985951	
C	5.0000000000	22.0334212706	0.7100014558	
H	5.0000000000	5.1026131622	3.3850005407	
H	5.0000000000	5.1026131622	0.8749998152	
H	5.0000000000	22.9773871799	3.0049998026	
H	5.0000000000	22.9773871799	1.2550002993					
K_POINTS (automatic)
1 1 50 0 0 0
CELL_PARAMETERS cubic
10.000000   0.0000000   0.000000
 0.000000  28.0800000   0.000000
 0.000000   0.0000000   4.260000
