 &control
    calculation='relax'
    pseudo_dir = '/home/zfwang/hp_home/MySoftware/qe-6.3/pseudo'
    outdir='/home/zfwang/scratch/GNRDATASET/AGNR/A15',
    prefix='A15',
    tstress = .true.
    tprnfor = .true.
    etot_conv_thr = 1.0D-4,
    forc_conv_thr = 1.0D-3,
    wf_collect = .true.,
 /
 &system
    ibrav = 0,
    celldm(1) = 1.8897261249935,
    nat = 34,
    ntyp = 2,
    ecutwfc =40.d0
    ecutrho =480.d0
    occupations='smearing', smearing='marzari-vanderbilt', degauss=0.01
	nosym=.true
 /
 &electrons
    conv_thr = 1.0D-5
    mixing_beta = 0.7
 /
  &IONS
    ion_dynamics = 'bfgs'
	upscale = 1.0D4
	
 /
ATOMIC_SPECIES
C  12.0107  C.pbe-n-rrkjus_psl.0.1.UPF
H  1.00794  H.pbe-rrkjus_psl.0.1.UPF
ATOMIC_POSITIONS (Angstrom)
C	5.0000000000	6.0467115706	2.8400015068	
C	5.0000000000	7.2764709531	3.5499988365	
C	5.0000000000	6.0467115706	1.4199985951	
C	5.0000000000	8.5062307724	2.8400015068	
C	5.0000000000	9.7359613293	3.5499988365	
C	5.0000000000	7.2764709531	0.7100014558	
C	5.0000000000	8.5062307724	1.4199985951	
C	5.0000000000	10.9657207118	2.8400015068	
C	5.0000000000	12.1954800944	3.5499988365	
C	5.0000000000	9.7359613293	0.7100014558	
C	5.0000000000	10.9657207118	1.4199985951	
C	5.0000000000	13.4252403504	2.8400015068	
C	5.0000000000	14.6549997330	3.5499988365	
C	5.0000000000	12.1954800944	0.7100014558	
C	5.0000000000	13.4252403504	1.4199985951	
C	5.0000000000	15.8847599890	2.8400015068	
C	5.0000000000	17.1145184981	3.5499988365	
C	5.0000000000	14.6549997330	0.7100014558	
C	5.0000000000	15.8847599890	1.4199985951	
C	5.0000000000	18.3442787541	2.8400015068	
C	5.0000000000	19.5740390102	3.5499988365	
C	5.0000000000	17.1145184981	0.7100014558	
C	5.0000000000	18.3442787541	1.4199985951	
C	5.0000000000	20.8037678200	2.8400015068	
C	5.0000000000	22.0335280761	3.5499988365	
C	5.0000000000	19.5740390102	0.7100014558	
C	5.0000000000	20.8037678200	1.4199985951	
C	5.0000000000	23.2632883321	2.8400015068	
C	5.0000000000	22.0335280761	0.7100014558	
C	5.0000000000	23.2632883321	1.4199985951	
H	5.0000000000	5.1027537601	3.3850005407	
H	5.0000000000	5.1027537601	0.8749998152	
H	5.0000000000	24.2072461426	3.3850005407	
H	5.0000000000	24.2072461426	0.8749998152					
K_POINTS (automatic)
1 1 10 0 0 0
CELL_PARAMETERS cubic
10.000000   0.0000000   0.000000
 0.000000  29.3100000   0.000000
 0.000000   0.0000000   4.260000
