 &control
    calculation='nscf'
    pseudo_dir = '/home/zfwang/hp_home/MySoftware/qe-6.3/pseudo',
    outdir='/home/zfwang/scratch/GNRDATASET/AGNR/A16'
    prefix='A16'
    wf_collect = .true.
 /
 &system
    ibrav = 0,
    celldm(1) = 1.8897261249935,
    nat = 36,
    ntyp = 2,
    ecutwfc=40.0,
    ecutrho=480.d0,
    nbnd=500,nosym=.true.,
    occupations='smearing', smearing='marzari-vanderbilt', degauss=0.01
 /
 &electrons
    conv_thr = 1.0D-5
    mixing_beta = 0.7
 /
ATOMIC_SPECIES
C  12.0107  C.pbe-n-rrkjus_psl.0.1.UPF
H  1.00794  H.pbe-rrkjus_psl.0.1.UPF
ATOMIC_POSITIONS (Angstrom)
C	5.0000000000	6.0468286771	2.8400015068	
C	5.0000000000	7.2765826088	3.5499988365	
C	5.0000000000	6.0468286771	1.4199985951	
C	5.0000000000	8.5063365405	2.8400015068	
C	5.0000000000	9.7360913823	3.5499988365	
C	5.0000000000	7.2765826088	0.7100014558	
C	5.0000000000	8.5063365405	1.4199985951	
C	5.0000000000	10.9658453140	2.8400015068	
C	5.0000000000	12.1955992457	3.5499988365	
C	5.0000000000	9.7360913823	0.7100014558	
C	5.0000000000	10.9658453140	1.4199985951	
C	5.0000000000	13.4253540875	2.8400015068	
C	5.0000000000	14.6551080192	3.5499988365	
C	5.0000000000	12.1955992457	0.7100014558	
C	5.0000000000	13.4253540875	1.4199985951	
C	5.0000000000	15.8848919862	2.8400015068	
C	5.0000000000	17.1146477382	3.5499988365	
C	5.0000000000	14.6551080192	0.7100014558	
C	5.0000000000	15.8848919862	1.4199985951	
C	5.0000000000	18.3444016699	2.8400015068	
C	5.0000000000	19.5741556015	3.5499988365	
C	5.0000000000	17.1146477382	0.7100014558	
C	5.0000000000	18.3444016699	1.4199985951	
C	5.0000000000	20.8039095332	2.8400015068	
C	5.0000000000	22.0336634649	3.5499988365	
C	5.0000000000	19.5741556015	0.7100014558	
C	5.0000000000	20.8039095332	1.4199985951	
C	5.0000000000	23.2634173966	2.8400015068	
C	5.0000000000	24.4931731486	3.5499988365	
C	5.0000000000	22.0336634649	0.7100014558	
C	5.0000000000	23.2634173966	1.4199985951	
C	5.0000000000	24.4931731486	0.7100014558	
H	5.0000000000	5.1028677330	3.3850005407	
H	5.0000000000	5.1028677330	0.8749998152	
H	5.0000000000	25.4371340927	3.0049998026	
H	5.0000000000	25.4371340927	1.2550002993			
K_POINTS (automatic)
1 1 50 0 0 0
CELL_PARAMETERS cubic
10.000000   0.0000000   0.000000
 0.000000  30.5400000   0.000000
 0.000000   0.0000000   4.260000
