 &control
    calculation='relax'
    pseudo_dir = '/home/zfwang/hp_home/MySoftware/qe-6.3/pseudo'
    outdir='/home/zfwang/scratch/GNRDATASET/AGNR/A17',
    prefix='A17',
    tstress = .true.
    tprnfor = .true.
    etot_conv_thr = 1.0D-4,
    forc_conv_thr = 1.0D-3,
    wf_collect = .true.,
 /
 &system
    ibrav = 0,
    celldm(1) = 1.8897261249935,
    nat = 38,
    ntyp = 2,
    ecutwfc =40.d0
    ecutrho =480.d0
    occupations='smearing', smearing='marzari-vanderbilt', degauss=0.01
	nosym=.true
 /
 &electrons
    conv_thr = 1.0D-5
    mixing_beta = 0.7
 /
  &IONS
    ion_dynamics = 'bfgs'
	upscale = 1.0D4
	
 /
ATOMIC_SPECIES
C  12.0107  C.pbe-n-rrkjus_psl.0.1.UPF
H  1.00794  H.pbe-rrkjus_psl.0.1.UPF
ATOMIC_POSITIONS (Angstrom)
C	5.0000000000	6.0469432126	2.8400015068	
C	5.0000000000	7.2766964340	3.5499988365	
C	5.0000000000	6.0469432126	1.4199985951	
C	5.0000000000	8.5064496554	2.8400015068	
C	5.0000000000	9.7362341218	3.5499988365	
C	5.0000000000	7.2766964340	0.7100014558	
C	5.0000000000	8.5064496554	1.4199985951	
C	5.0000000000	10.9659873432	2.8400015068	
C	5.0000000000	12.1957405647	3.5499988365	
C	5.0000000000	9.7362341218	0.7100014558	
C	5.0000000000	10.9659873432	1.4199985951	
C	5.0000000000	13.4254937861	2.8400015068	
C	5.0000000000	14.6552470075	3.5499988365	
C	5.0000000000	12.1957405647	0.7100014558	
C	5.0000000000	13.4254937861	1.4199985951	
C	5.0000000000	15.8850002289	2.8400015068	
C	5.0000000000	17.1147525035	3.5499988365	
C	5.0000000000	14.6552470075	0.7100014558	
C	5.0000000000	15.8850002289	1.4199985951	
C	5.0000000000	18.3445066717	2.8400015068	
C	5.0000000000	19.5742589463	3.5499988365	
C	5.0000000000	17.1147525035	0.7100014558	
C	5.0000000000	18.3445066717	1.4199985951	
C	5.0000000000	20.8040131145	2.8400015068	
C	5.0000000000	22.0337653891	3.5499988365	
C	5.0000000000	19.5742589463	0.7100014558	
C	5.0000000000	20.8040131145	1.4199985951	
C	5.0000000000	23.2635517492	2.8400015068	
C	5.0000000000	24.4933040238	3.5499988365	
C	5.0000000000	22.0337653891	0.7100014558	
C	5.0000000000	23.2635517492	1.4199985951	
C	5.0000000000	25.7230581920	2.8400015068	
C	5.0000000000	24.4933040238	0.7100014558	
C	5.0000000000	25.7230581920	1.4199985951	
H	5.0000000000	5.1029927540	3.3850005407	
H	5.0000000000	5.1029927540	0.8749998152	
H	5.0000000000	26.6670072303	3.3850005407	
H	5.0000000000	26.6670072303	0.8749998152			
K_POINTS (automatic)
1 1 10 0 0 0
CELL_PARAMETERS cubic
10.000000   0.0000000   0.000000
 0.000000  31.7700000   0.000000
 0.000000   0.0000000   4.260000
