 &bands
       prefix='A19',
       outdir='/home/zfwang/scratch/GNRDATASET/AGNR/A19',
       filband='bands_A19.dat',
       lsym=.true.,
 /
