 &control
    calculation='nscf'
    pseudo_dir = '/home/zfwang/hp_home/MySoftware/qe-6.3/pseudo',
    outdir='/home/zfwang/scratch/GNRDATASET/AGNR/A20'
    prefix='A20'
    wf_collect = .true.
 /
 &system
    ibrav = 0,
    celldm(1) = 1.8897261249935,
    nat = 44,
    ntyp = 2,
    ecutwfc=40.0,
    ecutrho=480.d0,
    nbnd=500,nosym=.true.,
    occupations='smearing', smearing='marzari-vanderbilt', degauss=0.01
 /
 &electrons
    conv_thr = 1.0D-5
    mixing_beta = 0.7
 /
ATOMIC_SPECIES
C  12.0107  C.pbe-n-rrkjus_psl.0.1.UPF
H  1.00794  H.pbe-rrkjus_psl.0.1.UPF
ATOMIC_POSITIONS (Angstrom)
C	5.0000000000	6.0473130176	2.8400015068	
C	5.0000000000	7.2770655726	3.5499988365	
C	5.0000000000	6.0473130176	1.4199985951	
C	5.0000000000	8.5068181276	2.8400015068	
C	5.0000000000	9.7365706827	3.5499988365	
C	5.0000000000	7.2770655726	0.7100014558	
C	5.0000000000	8.5068181276	1.4199985951	
C	5.0000000000	10.9663237661	2.8400015068	
C	5.0000000000	12.1961117236	3.5499988365	
C	5.0000000000	9.7365706827	0.7100014558	
C	5.0000000000	10.9663237661	1.4199985951	
C	5.0000000000	13.4258648070	2.8400015068	
C	5.0000000000	14.6556178905	3.5499988365	
C	5.0000000000	12.1961117236	0.7100014558	
C	5.0000000000	13.4258648070	1.4199985951	
C	5.0000000000	15.8853699171	2.8400015068	
C	5.0000000000	17.1151230005	3.5499988365	
C	5.0000000000	14.6556178905	0.7100014558	
C	5.0000000000	15.8853699171	1.4199985951	
C	5.0000000000	18.3448760839	2.8400015068	
C	5.0000000000	19.5746291674	3.5499988365	
C	5.0000000000	17.1151230005	0.7100014558	
C	5.0000000000	18.3448760839	1.4199985951	
C	5.0000000000	20.8043822508	2.8400015068	
C	5.0000000000	22.0341332206	3.5499988365	
C	5.0000000000	19.5746291674	0.7100014558	
C	5.0000000000	20.8043822508	1.4199985951	
C	5.0000000000	23.2638863041	2.8400015068	
C	5.0000000000	24.4936753184	3.5499988365	
C	5.0000000000	22.0341332206	0.7100014558	
C	5.0000000000	23.2638863041	1.4199985951	
C	5.0000000000	25.7234284018	2.8400015068	
C	5.0000000000	26.9531814852	3.5499988365	
C	5.0000000000	24.4936753184	0.7100014558	
C	5.0000000000	25.7234284018	1.4199985951	
C	5.0000000000	28.1829345687	2.8400015068	
C	5.0000000000	29.4126855385	3.5499988365	
C	5.0000000000	26.9531814852	0.7100014558	
C	5.0000000000	28.1829345687	1.4199985951	
C	5.0000000000	29.4126855385	0.7100014558	
H	5.0000000000	5.1033318898	3.3850005407	
H	5.0000000000	5.1033318898	0.8749998152	
H	5.0000000000	30.3566677231	3.0049998026	
H	5.0000000000	30.3566677231	1.2550002993
K_POINTS (automatic)
1 1 50 0 0 0
CELL_PARAMETERS cubic
10.000000   0.0000000   0.000000
 0.000000  35.4600000   0.000000
 0.000000   0.0000000   4.260000
