 &control
    calculation='relax'
    pseudo_dir = '/home/zfwang/hp_home/MySoftware/qe-6.3/pseudo'
    outdir='/home/zfwang/scratch/GNRDATASET/AGNR/A21',
    prefix='A21',
    tstress = .true.
    tprnfor = .true.
    etot_conv_thr = 1.0D-4,
    forc_conv_thr = 1.0D-3,
    wf_collect = .true.,
 /
 &system
    ibrav = 0,
    celldm(1) = 1.8897261249935,
    nat = 46,
    ntyp = 2,
    ecutwfc =40.d0
    ecutrho =480.d0
    occupations='smearing', smearing='marzari-vanderbilt', degauss=0.01
	nosym=.true
 /
 &electrons
    conv_thr = 1.0D-5
    mixing_beta = 0.7
 /
  &IONS
    ion_dynamics = 'bfgs'
	upscale = 1.0D4
	
 /
ATOMIC_SPECIES
C  12.0107  C.pbe-n-rrkjus_psl.0.1.UPF
H  1.00794  H.pbe-rrkjus_psl.0.1.UPF
ATOMIC_POSITIONS (Angstrom)
C	5.0000000000	6.0474292922	2.8400015068	
C	5.0000000000	7.2772041722	3.5499988365	
C	5.0000000000	6.0474292922	1.4199985951	
C	5.0000000000	8.5069429684	2.8400015068	
C	5.0000000000	9.7367183951	3.5499988365	
C	5.0000000000	7.2772041722	0.7100014558	
C	5.0000000000	8.5069429684	1.4199985951	
C	5.0000000000	10.9664571913	2.8400015068	
C	5.0000000000	12.1962320713	3.5499988365	
C	5.0000000000	9.7367183951	0.7100014558	
C	5.0000000000	10.9664571913	1.4199985951	
C	5.0000000000	13.4259708675	2.8400015068	
C	5.0000000000	14.6557468409	3.5499988365	
C	5.0000000000	12.1962320713	0.7100014558	
C	5.0000000000	13.4259708675	1.4199985951	
C	5.0000000000	15.8854856372	2.8400015068	
C	5.0000000000	17.1152605171	3.5499988365	
C	5.0000000000	14.6557468409	0.7100014558	
C	5.0000000000	15.8854856372	1.4199985951	
C	5.0000000000	18.3449993134	2.8400015068	
C	5.0000000000	19.5747381096	3.5499988365	
C	5.0000000000	17.1152605171	0.7100014558	
C	5.0000000000	18.3449993134	1.4199985951	
C	5.0000000000	20.8045140830	2.8400015068	
C	5.0000000000	22.0342528792	3.5499988365	
C	5.0000000000	19.5747381096	0.7100014558	
C	5.0000000000	20.8045140830	1.4199985951	
C	5.0000000000	23.2640266657	2.8400015068	
C	5.0000000000	24.4937654620	3.5499988365	
C	5.0000000000	22.0342528792	0.7100014558	
C	5.0000000000	23.2640266657	1.4199985951	
C	5.0000000000	25.7235414354	2.8400015068	
C	5.0000000000	26.9532802316	3.5499988365	
C	5.0000000000	24.4937654620	0.7100014558	
C	5.0000000000	25.7235414354	1.4199985951	
C	5.0000000000	28.1830562050	2.8400015068	
C	5.0000000000	29.4127950013	3.5499988365	
C	5.0000000000	26.9532802316	0.7100014558	
C	5.0000000000	28.1830562050	1.4199985951	
C	5.0000000000	30.6425687878	2.8400015068	
C	5.0000000000	29.4127950013	0.7100014558	
C	5.0000000000	30.6425687878	1.4199985951	
H	5.0000000000	5.1034689272	3.3850005407	
H	5.0000000000	5.1034689272	0.8749998152	
H	5.0000000000	31.5865307930	3.3850005407	
H	5.0000000000	31.5865307930	0.8749998152	
K_POINTS (automatic)
1 1 10 0 0 0
CELL_PARAMETERS cubic
10.000000   0.0000000   0.000000
 0.000000  36.6900000   0.000000
 0.000000   0.0000000   4.260000
