 &control
    calculation='relax'
    pseudo_dir = '/home/zfwang/hp_home/MySoftware/qe-6.3/pseudo'
    outdir='/home/zfwang/scratch/GNRDATASET/AGNR/A22',
    prefix='A22',
    tstress = .true.
    tprnfor = .true.
    etot_conv_thr = 1.0D-4,
    forc_conv_thr = 1.0D-3,
    wf_collect = .true.,
 /
 &system
    ibrav = 0,
    celldm(1) = 1.8897261249935,
    nat = 48,
    ntyp = 2,
    ecutwfc =40.d0
    ecutrho =480.d0
    occupations='smearing', smearing='marzari-vanderbilt', degauss=0.01
	nosym=.true
 /
 &electrons
    conv_thr = 1.0D-5
    mixing_beta = 0.7
 /
  &IONS
    ion_dynamics = 'bfgs'
	upscale = 1.0D4
	
 /
ATOMIC_SPECIES
C  12.0107  C.pbe-n-rrkjus_psl.0.1.UPF
H  1.00794  H.pbe-rrkjus_psl.0.1.UPF
ATOMIC_POSITIONS (Angstrom)
C	5.0000000000	6.0475572336	2.8400015068	
C	5.0000000000	7.2773025146	3.5499988365	
C	5.0000000000	6.0475572336	1.4199985951	
C	5.0000000000	8.5070862191	2.8400015068	
C	5.0000000000	9.7368315000	3.5499988365	
C	5.0000000000	7.2773025146	0.7100014558	
C	5.0000000000	8.5070862191	1.4199985951	
C	5.0000000000	10.9665767810	2.8400015068	
C	5.0000000000	12.1963231921	3.5499988365	
C	5.0000000000	9.7368315000	0.7100014558	
C	5.0000000000	10.9665767810	1.4199985951	
C	5.0000000000	13.4261057665	2.8400015068	
C	5.0000000000	14.6558521776	3.5499988365	
C	5.0000000000	12.1963231921	0.7100014558	
C	5.0000000000	13.4261057665	1.4199985951	
C	5.0000000000	15.8855974585	2.8400015068	
C	5.0000000000	17.1153811630	3.5499988365	
C	5.0000000000	14.6558521776	0.7100014558	
C	5.0000000000	15.8855974585	1.4199985951	
C	5.0000000000	18.3451264440	2.8400015068	
C	5.0000000000	19.5748728551	3.5499988365	
C	5.0000000000	17.1153811630	0.7100014558	
C	5.0000000000	18.3451264440	1.4199985951	
C	5.0000000000	20.8046181360	2.8400015068	
C	5.0000000000	22.0344018405	3.5499988365	
C	5.0000000000	19.5748728551	0.7100014558	
C	5.0000000000	20.8046181360	1.4199985951	
C	5.0000000000	23.2641471215	2.8400015068	
C	5.0000000000	24.4938924025	3.5499988365	
C	5.0000000000	22.0344018405	0.7100014558	
C	5.0000000000	23.2641471215	1.4199985951	
C	5.0000000000	25.7236761070	2.8400015068	
C	5.0000000000	26.9534213879	3.5499988365	
C	5.0000000000	24.4938924025	0.7100014558	
C	5.0000000000	25.7236761070	1.4199985951	
C	5.0000000000	28.1831666689	2.8400015068	
C	5.0000000000	29.4129119499	3.5499988365	
C	5.0000000000	26.9534213879	0.7100014558	
C	5.0000000000	28.1831666689	1.4199985951	
C	5.0000000000	30.6426956544	2.8400015068	
C	5.0000000000	31.8724409353	3.5499988365	
C	5.0000000000	29.4129119499	0.7100014558	
C	5.0000000000	30.6426956544	1.4199985951	
C	5.0000000000	31.8724409353	0.7100014558	
H	5.0000000000	5.1035768333	3.3850005407	
H	5.0000000000	5.1035768333	0.8749998152	
H	5.0000000000	32.8164213356	3.0049998026	
H	5.0000000000	32.8164213356	1.2550002993	
K_POINTS (automatic)
1 1 10 0 0 0
CELL_PARAMETERS cubic
10.000000   0.0000000   0.000000
 0.000000  37.9200000   0.000000
 0.000000   0.0000000   4.260000
