 &control
    calculation='relax'
    pseudo_dir = '/home/zfwang/hp_home/MySoftware/qe-6.3/pseudo'
    outdir='/home/zfwang/scratch/GNRDATASET/AGNR/A23',
    prefix='A23',
    tstress = .true.
    tprnfor = .true.
    etot_conv_thr = 1.0D-4,
    forc_conv_thr = 1.0D-3,
    wf_collect = .true.,
 /
 &system
    ibrav = 0,
    celldm(1) = 1.8897261249935,
    nat = 50,
    ntyp = 2,
    ecutwfc =40.d0
    ecutrho =480.d0
    occupations='smearing', smearing='marzari-vanderbilt', degauss=0.01
	nosym=.true
 /
 &electrons
    conv_thr = 1.0D-5
    mixing_beta = 0.7
 /
  &IONS
    ion_dynamics = 'bfgs'
	upscale = 1.0D4
	
 /
ATOMIC_SPECIES
C  12.0107  C.pbe-n-rrkjus_psl.0.1.UPF
H  1.00794  H.pbe-rrkjus_psl.0.1.UPF
ATOMIC_POSITIONS (Angstrom)
C	5.0000000000	6.0476966220	2.8400015068	
C	5.0000000000	7.2774370124	3.5499988365	
C	5.0000000000	6.0476966220	1.4199985951	
C	5.0000000000	8.5071779862	2.8400015068	
C	5.0000000000	9.7369574631	3.5499988365	
C	5.0000000000	7.2774370124	0.7100014558	
C	5.0000000000	8.5071779862	1.4199985951	
C	5.0000000000	10.9666978536	2.8400015068	
C	5.0000000000	12.1964779139	3.5499988365	
C	5.0000000000	9.7369574631	0.7100014558	
C	5.0000000000	10.9666978536	1.4199985951	
C	5.0000000000	13.4262194711	2.8400015068	
C	5.0000000000	14.6559598615	3.5499988365	
C	5.0000000000	12.1964779139	0.7100014558	
C	5.0000000000	13.4262194711	1.4199985951	
C	5.0000000000	15.8857399218	2.8400015068	
C	5.0000000000	17.1154803122	3.5499988365	
C	5.0000000000	14.6559598615	0.7100014558	
C	5.0000000000	15.8857399218	1.4199985951	
C	5.0000000000	18.3452603725	2.8400015068	
C	5.0000000000	19.5750007629	3.5499988365	
C	5.0000000000	17.1154803122	0.7100014558	
C	5.0000000000	18.3452603725	1.4199985951	
C	5.0000000000	20.8047411534	2.8400015068	
C	5.0000000000	22.0345212137	3.5499988365	
C	5.0000000000	19.5750007629	0.7100014558	
C	5.0000000000	20.8047411534	1.4199985951	
C	5.0000000000	23.2642616041	2.8400015068	
C	5.0000000000	24.4940416644	3.5499988365	
C	5.0000000000	22.0345212137	0.7100014558	
C	5.0000000000	23.2642616041	1.4199985951	
C	5.0000000000	25.7237820548	2.8400015068	
C	5.0000000000	26.9535224452	3.5499988365	
C	5.0000000000	24.4940416644	0.7100014558	
C	5.0000000000	25.7237820548	1.4199985951	
C	5.0000000000	28.1833025055	2.8400015068	
C	5.0000000000	29.4130428960	3.5499988365	
C	5.0000000000	26.9535224452	0.7100014558	
C	5.0000000000	28.1833025055	1.4199985951	
C	5.0000000000	30.6428229563	2.8400015068	
C	5.0000000000	31.8725633467	3.5499988365	
C	5.0000000000	29.4130428960	0.7100014558	
C	5.0000000000	30.6428229563	1.4199985951	
C	5.0000000000	33.1023060707	2.8400015068	
C	5.0000000000	31.8725633467	0.7100014558	
C	5.0000000000	33.1023060707	1.4199985951	
H	5.0000000000	5.1037117436	3.3850005407	
H	5.0000000000	5.1037117436	0.8749998152	
H	5.0000000000	34.0462903656	3.3850005407	
H	5.0000000000	34.0462903656	0.8749998152	
K_POINTS (automatic)
1 1 10 0 0 0
CELL_PARAMETERS cubic
10.000000   0.0000000   0.000000
 0.000000  39.1500000   0.000000
 0.000000   0.0000000   4.260000
