 &control
    calculation='relax'
    pseudo_dir = '/home/zfwang/hp_home/MySoftware/qe-6.3/pseudo'
    outdir='/home/zfwang/scratch/GNRDATASET/AGNR/A24',
    prefix='A24',
    tstress = .true.
    tprnfor = .true.
    etot_conv_thr = 1.0D-4,
    forc_conv_thr = 1.0D-3,
    wf_collect = .true.,
 /
 &system
    ibrav = 0,
    celldm(1) = 1.8897261249935,
    nat = 52,
    ntyp = 2,
    ecutwfc =40.d0
    ecutrho =480.d0
    occupations='smearing', smearing='marzari-vanderbilt', degauss=0.01
	nosym=.true
 /
 &electrons
    conv_thr = 1.0D-5
    mixing_beta = 0.7
 /
  &IONS
    ion_dynamics = 'bfgs'
	upscale = 1.0D4
	
 /
ATOMIC_SPECIES
C  12.0107  C.pbe-n-rrkjus_psl.0.1.UPF
H  1.00794  H.pbe-rrkjus_psl.0.1.UPF
ATOMIC_POSITIONS (Angstrom)
C	5.0000000000	6.0477936529	2.8400015068	
C	5.0000000000	7.2775663128	3.5499988365	
C	5.0000000000	6.0477936529	1.4199985951	
C	5.0000000000	8.5072992599	2.8400015068	
C	5.0000000000	9.7370719198	3.5499988365	
C	5.0000000000	7.2775663128	0.7100014558	
C	5.0000000000	8.5072992599	1.4199985951	
C	5.0000000000	10.9668451814	2.8400015068	
C	5.0000000000	12.1965769251	3.5499988365	
C	5.0000000000	9.7370719198	0.7100014558	
C	5.0000000000	10.9668451814	1.4199985951	
C	5.0000000000	13.4263507884	2.8400015068	
C	5.0000000000	14.6560825321	3.5499988365	
C	5.0000000000	12.1965769251	0.7100014558	
C	5.0000000000	13.4263507884	1.4199985951	
C	5.0000000000	15.8858563954	2.8400015068	
C	5.0000000000	17.1156290552	3.5499988365	
C	5.0000000000	14.6560825321	0.7100014558	
C	5.0000000000	15.8858563954	1.4199985951	
C	5.0000000000	18.3453607989	2.8400015068	
C	5.0000000000	19.5751346622	3.5499988365	
C	5.0000000000	17.1156290552	0.7100014558	
C	5.0000000000	18.3453607989	1.4199985951	
C	5.0000000000	20.8048676093	2.8400015068	
C	5.0000000000	22.0346402692	3.5499988365	
C	5.0000000000	19.5751346622	0.7100014558	
C	5.0000000000	20.8048676093	1.4199985951	
C	5.0000000000	23.2643720129	2.8400015068	
C	5.0000000000	24.4941446728	3.5499988365	
C	5.0000000000	22.0346402692	0.7100014558	
C	5.0000000000	23.2643720129	1.4199985951	
C	5.0000000000	25.7239173326	2.8400015068	
C	5.0000000000	26.9536514832	3.5499988365	
C	5.0000000000	24.4941446728	0.7100014558	
C	5.0000000000	25.7239173326	1.4199985951	
C	5.0000000000	28.1834241430	2.8400015068	
C	5.0000000000	29.4131558867	3.5499988365	
C	5.0000000000	26.9536514832	0.7100014558	
C	5.0000000000	28.1834241430	1.4199985951	
C	5.0000000000	30.6429285466	2.8400015068	
C	5.0000000000	31.8727012065	3.5499988365	
C	5.0000000000	29.4131558867	0.7100014558	
C	5.0000000000	30.6429285466	1.4199985951	
C	5.0000000000	33.1024353570	2.8400015068	
C	5.0000000000	34.3322080169	3.5499988365	
C	5.0000000000	31.8727012065	0.7100014558	
C	5.0000000000	33.1024353570	1.4199985951	
C	5.0000000000	34.3322080169	0.7100014558	
H	5.0000000000	5.1038303161	3.3850005407	
H	5.0000000000	5.1038303161	0.8749998152	
H	5.0000000000	35.2761713538	3.0049998026	
H	5.0000000000	35.2761713538	1.2550002993
K_POINTS (automatic)
1 1 10 0 0 0
CELL_PARAMETERS cubic
10.000000   0.0000000   0.000000
 0.000000  40.3800000   0.000000
 0.000000   0.0000000   4.260000
