 &control
    calculation='relax'
    pseudo_dir = '/home/zfwang/hp_home/MySoftware/qe-6.3/pseudo'
    outdir='/home/zfwang/scratch/GNRDATASET/AGNR/A25',
    prefix='A25',
    tstress = .true.
    tprnfor = .true.
    etot_conv_thr = 1.0D-4,
    forc_conv_thr = 1.0D-3,
    wf_collect = .true.,
 /
 &system
    ibrav = 0,
    celldm(1) = 1.8897261249935,
    nat = 54,
    ntyp = 2,
    ecutwfc =40.d0
    ecutrho =480.d0
    occupations='smearing', smearing='marzari-vanderbilt', degauss=0.01
	nosym=.true
 /
 &electrons
    conv_thr = 1.0D-5
    mixing_beta = 0.7
 /
  &IONS
    ion_dynamics = 'bfgs'
	upscale = 1.0D4
	
 /
ATOMIC_SPECIES
C  12.0107  C.pbe-n-rrkjus_psl.0.1.UPF
H  1.00794  H.pbe-rrkjus_psl.0.1.UPF
ATOMIC_POSITIONS (Angstrom)
C	5.0000000000	6.0479302666	2.8400015068	
C	5.0000000000	7.2776726173	3.5499988365	
C	5.0000000000	6.0479302666	1.4199985951	
C	5.0000000000	8.5074558905	2.8400015068	
C	5.0000000000	9.7371976212	3.5499988365	
C	5.0000000000	7.2776726173	0.7100014558	
C	5.0000000000	8.5074558905	1.4199985951	
C	5.0000000000	10.9669399720	2.8400015068	
C	5.0000000000	12.1967232452	3.5499988365	
C	5.0000000000	9.7371976212	0.7100014558	
C	5.0000000000	10.9669399720	1.4199985951	
C	5.0000000000	13.4264655959	2.8400015068	
C	5.0000000000	14.6562067066	3.5499988365	
C	5.0000000000	12.1967232452	0.7100014558	
C	5.0000000000	13.4264655959	1.4199985951	
C	5.0000000000	15.8859912198	2.8400015068	
C	5.0000000000	17.1157323305	3.5499988365	
C	5.0000000000	14.6562067066	0.7100014558	
C	5.0000000000	15.8859912198	1.4199985951	
C	5.0000000000	18.3454746812	2.8400015068	
C	5.0000000000	19.5752579544	3.5499988365	
C	5.0000000000	17.1157323305	0.7100014558	
C	5.0000000000	18.3454746812	1.4199985951	
C	5.0000000000	20.8050003052	2.8400015068	
C	5.0000000000	22.0347426559	3.5499988365	
C	5.0000000000	19.5752579544	0.7100014558	
C	5.0000000000	20.8050003052	1.4199985951	
C	5.0000000000	23.2645246890	2.8400015068	
C	5.0000000000	24.4942670398	3.5499988365	
C	5.0000000000	22.0347426559	0.7100014558	
C	5.0000000000	23.2645246890	1.4199985951	
C	5.0000000000	25.7240093905	2.8400015068	
C	5.0000000000	26.9537939038	3.5499988365	
C	5.0000000000	24.4942670398	0.7100014558	
C	5.0000000000	25.7240093905	1.4199985951	
C	5.0000000000	28.1835362545	2.8400015068	
C	5.0000000000	29.4132761251	3.5499988365	
C	5.0000000000	26.9537939038	0.7100014558	
C	5.0000000000	28.1835362545	1.4199985951	
C	5.0000000000	30.6430606384	2.8400015068	
C	5.0000000000	31.8728029891	3.5499988365	
C	5.0000000000	29.4132761251	0.7100014558	
C	5.0000000000	30.6430606384	1.4199985951	
C	5.0000000000	33.1025453398	2.8400015068	
C	5.0000000000	34.3323273730	3.5499988365	
C	5.0000000000	31.8728029891	0.7100014558	
C	5.0000000000	33.1025453398	1.4199985951	
C	5.0000000000	35.5620697237	2.8400015068	
C	5.0000000000	34.3323273730	0.7100014558	
C	5.0000000000	35.5620697237	1.4199985951	
H	5.0000000000	5.1039659098	3.3850005407	
H	5.0000000000	5.1039659098	0.8749998152	
H	5.0000000000	36.5060343906	3.3850005407	
H	5.0000000000	36.5060343906	0.8749998152	
K_POINTS (automatic)
1 1 10 0 0 0
CELL_PARAMETERS cubic
10.000000   0.0000000   0.000000
 0.000000  41.6100000   0.000000
 0.000000   0.0000000   4.260000
