 &bands
       prefix='A26',
       outdir='/home/zfwang/scratch/GNRDATASET/AGNR/A26',
       filband='bands_A26.dat',
       lsym=.true.,
 /
