 &control
    calculation='relax'
    pseudo_dir = '/home/zfwang/hp_home/MySoftware/qe-6.3/pseudo'
    outdir='/home/zfwang/scratch/GNRDATASET/AGNR/A26',
    prefix='A26',
    tstress = .true.
    tprnfor = .true.
    etot_conv_thr = 1.0D-4,
    forc_conv_thr = 1.0D-3,
    wf_collect = .true.,
 /
 &system
    ibrav = 0,
    celldm(1) = 1.8897261249935,
    nat = 56,
    ntyp = 2,
    ecutwfc =40.d0
    ecutrho =480.d0
    occupations='smearing', smearing='marzari-vanderbilt', degauss=0.01
	nosym=.true
 /
 &electrons
    conv_thr = 1.0D-5
    mixing_beta = 0.7
 /
  &IONS
    ion_dynamics = 'bfgs'
	upscale = 1.0D4
	
 /
ATOMIC_SPECIES
C  12.0107  C.pbe-n-rrkjus_psl.0.1.UPF
H  1.00794  H.pbe-rrkjus_psl.0.1.UPF
ATOMIC_POSITIONS (Angstrom)
C	5.0000000000	6.0480654127	2.8400015068	
C	5.0000000000	7.2777876547	3.5499988365	
C	5.0000000000	6.0480654127	1.4199985951	
C	5.0000000000	8.5075526672	2.8400015068	
C	5.0000000000	9.7373176796	3.5499988365	
C	5.0000000000	7.2777876547	0.7100014558	
C	5.0000000000	8.5075526672	1.4199985951	
C	5.0000000000	10.9670826921	2.8400015068	
C	5.0000000000	12.1968483429	3.5499988365	
C	5.0000000000	9.7373176796	0.7100014558	
C	5.0000000000	10.9670826921	1.4199985951	
C	5.0000000000	13.4265705849	2.8400015068	
C	5.0000000000	14.6563349590	3.5499988365	
C	5.0000000000	12.1968483429	0.7100014558	
C	5.0000000000	13.4265705849	1.4199985951	
C	5.0000000000	15.8861006099	2.8400015068	
C	5.0000000000	17.1158649840	3.5499988365	
C	5.0000000000	14.6563349590	0.7100014558	
C	5.0000000000	15.8861006099	1.4199985951	
C	5.0000000000	18.3456306348	2.8400015068	
C	5.0000000000	19.5753528768	3.5499988365	
C	5.0000000000	17.1158649840	0.7100014558	
C	5.0000000000	18.3456306348	1.4199985951	
C	5.0000000000	20.8051172509	2.8400015068	
C	5.0000000000	22.0348816250	3.5499988365	
C	5.0000000000	19.5753528768	0.7100014558	
C	5.0000000000	20.8051172509	1.4199985951	
C	5.0000000000	23.2646472758	2.8400015068	
C	5.0000000000	24.4943695178	3.5499988365	
C	5.0000000000	22.0348816250	0.7100014558	
C	5.0000000000	23.2646472758	1.4199985951	
C	5.0000000000	25.7241351686	2.8400015068	
C	5.0000000000	26.9539008195	3.5499988365	
C	5.0000000000	24.4943695178	0.7100014558	
C	5.0000000000	25.7241351686	1.4199985951	
C	5.0000000000	28.1836639168	2.8400015068	
C	5.0000000000	29.4134295677	3.5499988365	
C	5.0000000000	26.9539008195	0.7100014558	
C	5.0000000000	28.1836639168	1.4199985951	
C	5.0000000000	30.6431518096	2.8400015068	
C	5.0000000000	31.8729174605	3.5499988365	
C	5.0000000000	29.4134295677	0.7100014558	
C	5.0000000000	30.6431518096	1.4199985951	
C	5.0000000000	33.1026831113	2.8400015068	
C	5.0000000000	34.3324462087	3.5499988365	
C	5.0000000000	31.8729174605	0.7100014558	
C	5.0000000000	33.1026831113	1.4199985951	
C	5.0000000000	35.5622118595	2.8400015068	
C	5.0000000000	36.7919341015	3.5499988365	
C	5.0000000000	34.3324462087	0.7100014558	
C	5.0000000000	35.5622118595	1.4199985951	
C	5.0000000000	36.7919341015	0.7100014558	
H	5.0000000000	5.1040862125	3.3850005407	
H	5.0000000000	5.1040862125	0.8749998152	
H	5.0000000000	37.7359136209	3.0049998026	
H	5.0000000000	37.7359136209	1.2550002993	
K_POINTS (automatic)
1 1 10 0 0 0
CELL_PARAMETERS cubic
10.000000   0.0000000   0.000000
 0.000000  42.8400000   0.000000
 0.000000   0.0000000   4.260000
