 &control
    calculation='nscf'
    pseudo_dir = '/home/zfwang/hp_home/MySoftware/qe-6.3/pseudo',
    outdir='/home/zfwang/scratch/GNRDATASET/AGNR/A27'
    prefix='A27'
    wf_collect = .true.
 /
 &system
    ibrav = 0,
    celldm(1) = 1.8897261249935,
    nat = 58,
    ntyp = 2,
    ecutwfc=40.0,
    ecutrho=480.d0,
    nbnd=500,nosym=.true.,
    occupations='smearing', smearing='marzari-vanderbilt', degauss=0.01
 /
 &electrons
    conv_thr = 1.0D-5
    mixing_beta = 0.7
 /
ATOMIC_SPECIES
C  12.0107  C.pbe-n-rrkjus_psl.0.1.UPF
H  1.00794  H.pbe-rrkjus_psl.0.1.UPF
ATOMIC_POSITIONS (Angstrom)
C	5.0000000000	6.0481664328	2.8400015068	
C	5.0000000000	7.2779398729	3.5499988365	
C	5.0000000000	6.0481664328	1.4199985951	
C	5.0000000000	8.5076693144	2.8400015068	
C	5.0000000000	9.7374427544	3.5499988365	
C	5.0000000000	7.2779398729	0.7100014558	
C	5.0000000000	8.5076693144	1.4199985951	
C	5.0000000000	10.9672161945	2.8400015068	
C	5.0000000000	12.1969449793	3.5499988365	
C	5.0000000000	9.7374427544	0.7100014558	
C	5.0000000000	10.9672161945	1.4199985951	
C	5.0000000000	13.4267190760	2.8400015068	
C	5.0000000000	14.6564485176	3.5499988365	
C	5.0000000000	12.1969449793	0.7100014558	
C	5.0000000000	13.4267190760	1.4199985951	
C	5.0000000000	15.8862213009	2.8400015068	
C	5.0000000000	17.1159940843	3.5499988365	
C	5.0000000000	14.6564485176	0.7100014558	
C	5.0000000000	15.8862213009	1.4199985951	
C	5.0000000000	18.3457235258	2.8400015068	
C	5.0000000000	19.5754976225	3.5499988365	
C	5.0000000000	17.1159940843	0.7100014558	
C	5.0000000000	18.3457235258	1.4199985951	
C	5.0000000000	20.8052270641	2.8400015068	
C	5.0000000000	22.0349998474	3.5499988365	
C	5.0000000000	19.5754976225	0.7100014558	
C	5.0000000000	20.8052270641	1.4199985951	
C	5.0000000000	23.2647726308	2.8400015068	
C	5.0000000000	24.4945033857	3.5499988365	
C	5.0000000000	22.0349998474	0.7100014558	
C	5.0000000000	23.2647726308	1.4199985951	
C	5.0000000000	25.7242761690	2.8400015068	
C	5.0000000000	26.9540042972	3.5499988365	
C	5.0000000000	24.4945033857	0.7100014558	
C	5.0000000000	25.7242761690	1.4199985951	
C	5.0000000000	28.1837797073	2.8400015068	
C	5.0000000000	29.4135524906	3.5499988365	
C	5.0000000000	26.9540042972	0.7100014558	
C	5.0000000000	28.1837797073	1.4199985951	
C	5.0000000000	30.6432806188	2.8400015068	
C	5.0000000000	31.8730534021	3.5499988365	
C	5.0000000000	29.4135524906	0.7100014558	
C	5.0000000000	30.6432806188	1.4199985951	
C	5.0000000000	33.1027841570	2.8400015068	
C	5.0000000000	34.3325569404	3.5499988365	
C	5.0000000000	31.8730534021	0.7100014558	
C	5.0000000000	33.1027841570	1.4199985951	
C	5.0000000000	35.5623297237	2.8400015068	
C	5.0000000000	36.7920604787	3.5499988365	
C	5.0000000000	34.3325569404	0.7100014558	
C	5.0000000000	35.5623297237	1.4199985951	
C	5.0000000000	38.0218332620	2.8400015068	
C	5.0000000000	36.7920604787	0.7100014558	
C	5.0000000000	38.0218332620	1.4199985951	
H	5.0000000000	5.1041872803	3.3850005407	
H	5.0000000000	5.1041872803	0.8749998152	
H	5.0000000000	38.9658127429	3.3850005407	
H	5.0000000000	38.9658127429	0.8749998152	
K_POINTS (automatic)
1 1 50 0 0 0
CELL_PARAMETERS cubic
10.000000   0.0000000   0.000000
 0.000000  44.0700000   0.000000
 0.000000   0.0000000   4.260000
