 &control
    calculation='nscf'
    pseudo_dir = '/home/zfwang/hp_home/MySoftware/qe-6.3/pseudo',
    outdir='/home/zfwang/scratch/GNRDATASET/AGNR/A28'
    prefix='A28'
    wf_collect = .true.
 /
 &system
    ibrav = 0,
    celldm(1) = 1.8897261249935,
    nat = 60,
    ntyp = 2,
    ecutwfc=40.0,
    ecutrho=480.d0,
    nbnd=500,nosym=.true.,
    occupations='smearing', smearing='marzari-vanderbilt', degauss=0.01
 /
 &electrons
    conv_thr = 1.0D-5
    mixing_beta = 0.7
 /
ATOMIC_SPECIES
C  12.0107  C.pbe-n-rrkjus_psl.0.1.UPF
H  1.00794  H.pbe-rrkjus_psl.0.1.UPF
ATOMIC_POSITIONS (Angstrom)
C	5.0000000000	6.0482746402	2.8400015068	
C	5.0000000000	7.2780334961	3.5499988365	
C	5.0000000000	6.0482746402	1.4199985951	
C	5.0000000000	8.5077930269	2.8400015068	
C	5.0000000000	9.7375518828	3.5499988365	
C	5.0000000000	7.2780334961	0.7100014558	
C	5.0000000000	8.5077930269	1.4199985951	
C	5.0000000000	10.9673107386	2.8400015068	
C	5.0000000000	12.1970695945	3.5499988365	
C	5.0000000000	9.7375518828	0.7100014558	
C	5.0000000000	10.9673107386	1.4199985951	
C	5.0000000000	13.4268298004	2.8400015068	
C	5.0000000000	14.6565886562	3.5499988365	
C	5.0000000000	12.1970695945	0.7100014558	
C	5.0000000000	13.4268298004	1.4199985951	
C	5.0000000000	15.8863475121	2.8400015068	
C	5.0000000000	17.1161063679	3.5499988365	
C	5.0000000000	14.6565886562	0.7100014558	
C	5.0000000000	15.8863475121	1.4199985951	
C	5.0000000000	18.3458652238	2.8400015068	
C	5.0000000000	19.5756240796	3.5499988365	
C	5.0000000000	17.1161063679	0.7100014558	
C	5.0000000000	18.3458652238	1.4199985951	
C	5.0000000000	20.8053842855	2.8400015068	
C	5.0000000000	22.0351431414	3.5499988365	
C	5.0000000000	19.5756240796	0.7100014558	
C	5.0000000000	20.8053842855	1.4199985951	
C	5.0000000000	23.2648560957	2.8400015068	
C	5.0000000000	24.4946149515	3.5499988365	
C	5.0000000000	22.0351431414	0.7100014558	
C	5.0000000000	23.2648560957	1.4199985951	
C	5.0000000000	25.7243738074	2.8400015068	
C	5.0000000000	26.9541326632	3.5499988365	
C	5.0000000000	24.4946149515	0.7100014558	
C	5.0000000000	25.7243738074	1.4199985951	
C	5.0000000000	28.1838915191	2.8400015068	
C	5.0000000000	29.4136530750	3.5499988365	
C	5.0000000000	26.9541326632	0.7100014558	
C	5.0000000000	28.1838915191	1.4199985951	
C	5.0000000000	30.6434119309	2.8400015068	
C	5.0000000000	31.8731707867	3.5499988365	
C	5.0000000000	29.4136530750	0.7100014558	
C	5.0000000000	30.6434119309	1.4199985951	
C	5.0000000000	33.1029296426	2.8400015068	
C	5.0000000000	34.3326884984	3.5499988365	
C	5.0000000000	31.8731707867	0.7100014558	
C	5.0000000000	33.1029296426	1.4199985951	
C	5.0000000000	35.5624473543	2.8400015068	
C	5.0000000000	36.7922062101	3.5499988365	
C	5.0000000000	34.3326884984	0.7100014558	
C	5.0000000000	35.5624473543	1.4199985951	
C	5.0000000000	38.0219650660	2.8400015068	
C	5.0000000000	39.2517239218	3.5499988365	
C	5.0000000000	36.7922062101	0.7100014558	
C	5.0000000000	38.0219650660	1.4199985951	
C	5.0000000000	39.2517239218	0.7100014558	
H	5.0000000000	5.1043132615	3.3850005407	
H	5.0000000000	5.1043132615	0.8749998152	
H	5.0000000000	40.1956863130	3.0049998026	
H	5.0000000000	40.1956863130	1.2550002993	
K_POINTS (automatic)
1 1 50 0 0 0
CELL_PARAMETERS cubic
10.000000   0.0000000   0.000000
 0.000000  45.300000   0.000000
 0.000000   0.0000000   4.260000
