 &control
    calculation='relax'
    pseudo_dir = '/home/zfwang/hp_home/MySoftware/qe-6.3/pseudo'
    outdir='/home/zfwang/scratch/GNRDATASET/AGNR/A29',
    prefix='A29',
    tstress = .true.
    tprnfor = .true.
    etot_conv_thr = 1.0D-4,
    forc_conv_thr = 1.0D-3,
    wf_collect = .true.,
 /
 &system
    ibrav = 0,
    celldm(1) = 1.8897261249935,
    nat = 62,
    ntyp = 2,
    ecutwfc =40.d0
    ecutrho =480.d0
    occupations='smearing', smearing='marzari-vanderbilt', degauss=0.01
	nosym=.true
 /
 &electrons
    conv_thr = 1.0D-5
    mixing_beta = 0.7
 /
  &IONS
    ion_dynamics = 'bfgs'
	upscale = 1.0D4
	
 /
ATOMIC_SPECIES
C  12.0107  C.pbe-n-rrkjus_psl.0.1.UPF
H  1.00794  H.pbe-rrkjus_psl.0.1.UPF
ATOMIC_POSITIONS (Angstrom)
C	5.0000000000	6.0484343809	2.8400015068	
C	5.0000000000	7.2781756031	3.5499988365	
C	5.0000000000	6.0484343809	1.4199985951	
C	5.0000000000	8.5079175186	2.8400015068	
C	5.0000000000	9.7377051953	3.5499988365	
C	5.0000000000	7.2781756031	0.7100014558	
C	5.0000000000	8.5079175186	1.4199985951	
C	5.0000000000	10.9674464175	2.8400015068	
C	5.0000000000	12.1971883331	3.5499988365	
C	5.0000000000	9.7377051953	0.7100014558	
C	5.0000000000	10.9674464175	1.4199985951	
C	5.0000000000	13.4269295552	2.8400015068	
C	5.0000000000	14.6567165386	3.5499988365	
C	5.0000000000	12.1971883331	0.7100014558	
C	5.0000000000	13.4269295552	1.4199985951	
C	5.0000000000	15.8864577608	2.8400015068	
C	5.0000000000	17.1161989830	3.5499988365	
C	5.0000000000	14.6567165386	0.7100014558	
C	5.0000000000	15.8864577608	1.4199985951	
C	5.0000000000	18.3459873530	2.8400015068	
C	5.0000000000	19.5757285752	3.5499988365	
C	5.0000000000	17.1161989830	0.7100014558	
C	5.0000000000	18.3459873530	1.4199985951	
C	5.0000000000	20.8054697974	2.8400015068	
C	5.0000000000	22.0352581675	3.5499988365	
C	5.0000000000	19.5757285752	0.7100014558	
C	5.0000000000	20.8054697974	1.4199985951	
C	5.0000000000	23.2649993896	2.8400015068	
C	5.0000000000	24.4947406118	3.5499988365	
C	5.0000000000	22.0352581675	0.7100014558	
C	5.0000000000	23.2649993896	1.4199985951	
C	5.0000000000	25.7245289819	2.8400015068	
C	5.0000000000	26.9542702041	3.5499988365	
C	5.0000000000	24.4947406118	0.7100014558	
C	5.0000000000	25.7245289819	1.4199985951	
C	5.0000000000	28.1840114263	2.8400015068	
C	5.0000000000	29.4137997963	3.5499988365	
C	5.0000000000	26.9542702041	0.7100014558	
C	5.0000000000	28.1840114263	1.4199985951	
C	5.0000000000	30.6435410185	2.8400015068	
C	5.0000000000	31.8732822407	3.5499988365	
C	5.0000000000	29.4137997963	0.7100014558	
C	5.0000000000	30.6435410185	1.4199985951	
C	5.0000000000	33.1030706108	2.8400015068	
C	5.0000000000	34.3328118329	3.5499988365	
C	5.0000000000	31.8732822407	0.7100014558	
C	5.0000000000	33.1030706108	1.4199985951	
C	5.0000000000	35.5625530551	2.8400015068	
C	5.0000000000	36.7922942773	3.5499988365	
C	5.0000000000	34.3328118329	0.7100014558	
C	5.0000000000	35.5625530551	1.4199985951	
C	5.0000000000	38.0220826474	2.8400015068	
C	5.0000000000	39.2518238696	3.5499988365	
C	5.0000000000	36.7922942773	0.7100014558	
C	5.0000000000	38.0220826474	1.4199985951	
C	5.0000000000	40.4815650917	2.8400015068	
C	5.0000000000	39.2518238696	0.7100014558	
C	5.0000000000	40.4815650917	1.4199985951	
H	5.0000000000	5.1044338578	3.3850005407	
H	5.0000000000	5.1044338578	0.8749998152	
H	5.0000000000	41.4255652682	3.3850005407	
H	5.0000000000	41.4255652682	0.8749998152	
K_POINTS (automatic)
1 1 10 0 0 0
CELL_PARAMETERS cubic
10.000000   0.0000000   0.000000
 0.000000  46.5300000   0.000000
 0.000000   0.0000000   4.260000
