 &control
    calculation='relax'
    pseudo_dir = '/home/zfwang/hp_home/MySoftware/qe-6.3/pseudo'
    outdir='/home/zfwang/scratch/GNRDATASET/AGNR/A30',
    prefix='A30',
    tstress = .true.
    tprnfor = .true.
    etot_conv_thr = 1.0D-4,
    forc_conv_thr = 1.0D-3,
    wf_collect = .true.,
 /
 &system
    ibrav = 0,
    celldm(1) = 1.8897261249935,
    nat = 64,
    ntyp = 2,
    ecutwfc =40.d0
    ecutrho =480.d0
    occupations='smearing', smearing='marzari-vanderbilt', degauss=0.01
	nosym=.true
 /
 &electrons
    conv_thr = 1.0D-5
    mixing_beta = 0.7
 /
  &IONS
    ion_dynamics = 'bfgs'
	upscale = 1.0D4
	
 /
ATOMIC_SPECIES
C  12.0107  C.pbe-n-rrkjus_psl.0.1.UPF
H  1.00794  H.pbe-rrkjus_psl.0.1.UPF
ATOMIC_POSITIONS (Angstrom)
C	5.0000000000	6.0485172471	2.8400015068	
C	5.0000000000	7.2782893448	3.5499988365	
C	5.0000000000	6.0485172471	1.4199985951	
C	5.0000000000	8.5080614426	2.8400015068	
C	5.0000000000	9.7377858578	3.5499988365	
C	5.0000000000	7.2782893448	0.7100014558	
C	5.0000000000	8.5080614426	1.4199985951	
C	5.0000000000	10.9675579556	2.8400015068	
C	5.0000000000	12.1973300533	3.5499988365	
C	5.0000000000	9.7377858578	0.7100014558	
C	5.0000000000	10.9675579556	1.4199985951	
C	5.0000000000	13.4270551803	2.8400015068	
C	5.0000000000	14.6568272780	3.5499988365	
C	5.0000000000	12.1973300533	0.7100014558	
C	5.0000000000	13.4270551803	1.4199985951	
C	5.0000000000	15.8865993758	2.8400015068	
C	5.0000000000	17.1163230793	3.5499988365	
C	5.0000000000	14.6568272780	0.7100014558	
C	5.0000000000	15.8865993758	1.4199985951	
C	5.0000000000	18.3460966005	2.8400015068	
C	5.0000000000	19.5758686982	3.5499988365	
C	5.0000000000	17.1163230793	0.7100014558	
C	5.0000000000	18.3460966005	1.4199985951	
C	5.0000000000	20.8055924018	2.8400015068	
C	5.0000000000	22.0353644995	3.5499988365	
C	5.0000000000	19.5758686982	0.7100014558	
C	5.0000000000	20.8055924018	1.4199985951	
C	5.0000000000	23.2651365973	2.8400015068	
C	5.0000000000	24.4948617242	3.5499988365	
C	5.0000000000	22.0353644995	0.7100014558	
C	5.0000000000	23.2651365973	1.4199985951	
C	5.0000000000	25.7246323986	2.8400015068	
C	5.0000000000	26.9544059197	3.5499988365	
C	5.0000000000	24.4948617242	0.7100014558	
C	5.0000000000	25.7246323986	1.4199985951	
C	5.0000000000	28.1841310467	2.8400015068	
C	5.0000000000	29.4139017211	3.5499988365	
C	5.0000000000	26.9544059197	0.7100014558	
C	5.0000000000	28.1841310467	1.4199985951	
C	5.0000000000	30.6436752422	2.8400015068	
C	5.0000000000	31.8734003691	3.5499988365	
C	5.0000000000	29.4139017211	0.7100014558	
C	5.0000000000	30.6436752422	1.4199985951	
C	5.0000000000	33.1031710435	2.8400015068	
C	5.0000000000	34.3329445646	3.5499988365	
C	5.0000000000	31.8734003691	0.7100014558	
C	5.0000000000	33.1031710435	1.4199985951	
C	5.0000000000	35.5626668448	2.8400015068	
C	5.0000000000	36.7924403659	3.5499988365	
C	5.0000000000	34.3329445646	0.7100014558	
C	5.0000000000	35.5626668448	1.4199985951	
C	5.0000000000	38.0222110404	2.8400015068	
C	5.0000000000	39.2519361673	3.5499988365	
C	5.0000000000	36.7924403659	0.7100014558	
C	5.0000000000	38.0222110404	1.4199985951	
C	5.0000000000	40.4817096884	2.8400015068	
C	5.0000000000	41.7114803628	3.5499988365	
C	5.0000000000	39.2519361673	0.7100014558	
C	5.0000000000	40.4817096884	1.4199985951	
C	5.0000000000	41.7114803628	0.7100014558	
H	5.0000000000	5.1045887029	3.3850005407	
H	5.0000000000	5.1045887029	0.8749998152	
H	5.0000000000	42.6554092628	3.0049998026	
H	5.0000000000	42.6554092628	1.2550002993	
K_POINTS (automatic)
1 1 10 0 0 0
CELL_PARAMETERS cubic
10.000000   0.0000000   0.000000
 0.000000  47.7600000   0.000000
 0.000000   0.0000000   4.260000
