 &control
    calculation='relax'
    pseudo_dir = '/home/zfwang/hp_home/MySoftware/qe-6.3/pseudo'
    outdir='/home/zfwang/scratch/GNRDATASET/AGNR/A31',
    prefix='A31',
    tstress = .true.
    tprnfor = .true.
    etot_conv_thr = 1.0D-4,
    forc_conv_thr = 1.0D-3,
    wf_collect = .true.,
 /
 &system
    ibrav = 0,
    celldm(1) = 1.8897261249935,
    nat = 66,
    ntyp = 2,
    ecutwfc =40.d0
    ecutrho =480.d0
    occupations='smearing', smearing='marzari-vanderbilt', degauss=0.01
	nosym=.true
 /
 &electrons
    conv_thr = 1.0D-5
    mixing_beta = 0.7
 /
  &IONS
    ion_dynamics = 'bfgs'
	upscale = 1.0D4
	
 /
ATOMIC_SPECIES
C  12.0107  C.pbe-n-rrkjus_psl.0.1.UPF
H  1.00794  H.pbe-rrkjus_psl.0.1.UPF
ATOMIC_POSITIONS (Angstrom)
C	5.0000000000	6.0486484558	2.8400015068	
C	5.0000000000	7.2783956940	3.5499988365	
C	5.0000000000	6.0486484558	1.4199985951	
C	5.0000000000	8.5081918426	2.8400015068	
C	5.0000000000	9.7379383507	3.5499988365	
C	5.0000000000	7.2783956940	0.7100014558	
C	5.0000000000	8.5081918426	1.4199985951	
C	5.0000000000	10.9676855889	2.8400015068	
C	5.0000000000	12.1974328270	3.5499988365	
C	5.0000000000	9.7379383507	0.7100014558	
C	5.0000000000	10.9676855889	1.4199985951	
C	5.0000000000	13.4271800651	2.8400015068	
C	5.0000000000	14.6569762138	3.5499988365	
C	5.0000000000	12.1974328270	0.7100014558	
C	5.0000000000	13.4271800651	1.4199985951	
C	5.0000000000	15.8867227219	2.8400015068	
C	5.0000000000	17.1164692300	3.5499988365	
C	5.0000000000	14.6569762138	0.7100014558	
C	5.0000000000	15.8867227219	1.4199985951	
C	5.0000000000	18.3462171981	2.8400015068	
C	5.0000000000	19.5759637062	3.5499988365	
C	5.0000000000	17.1164692300	0.7100014558	
C	5.0000000000	18.3462171981	1.4199985951	
C	5.0000000000	20.8057102143	2.8400015068	
C	5.0000000000	22.0355063630	3.5499988365	
C	5.0000000000	19.5759637062	0.7100014558	
C	5.0000000000	20.8057102143	1.4199985951	
C	5.0000000000	23.2652543311	2.8400015068	
C	5.0000000000	24.4950008392	3.5499988365	
C	5.0000000000	22.0355063630	0.7100014558	
C	5.0000000000	23.2652543311	1.4199985951	
C	5.0000000000	25.7247488074	2.8400015068	
C	5.0000000000	26.9544938555	3.5499988365	
C	5.0000000000	24.4950008392	0.7100014558	
C	5.0000000000	25.7247488074	1.4199985951	
C	5.0000000000	28.1842914641	2.8400015068	
C	5.0000000000	29.4140365122	3.5499988365	
C	5.0000000000	26.9544938555	0.7100014558	
C	5.0000000000	28.1842914641	1.4199985951	
C	5.0000000000	30.6437844804	2.8400015068	
C	5.0000000000	31.8735324485	3.5499988365	
C	5.0000000000	29.4140365122	0.7100014558	
C	5.0000000000	30.6437844804	1.4199985951	
C	5.0000000000	33.1032804166	2.8400015068	
C	5.0000000000	34.3330254647	3.5499988365	
C	5.0000000000	31.8735324485	0.7100014558	
C	5.0000000000	33.1032804166	1.4199985951	
C	5.0000000000	35.5628230734	2.8400015068	
C	5.0000000000	36.7925681215	3.5499988365	
C	5.0000000000	34.3330254647	0.7100014558	
C	5.0000000000	35.5628230734	1.4199985951	
C	5.0000000000	38.0223160896	2.8400015068	
C	5.0000000000	39.2520640577	3.5499988365	
C	5.0000000000	36.7925681215	0.7100014558	
C	5.0000000000	38.0223160896	1.4199985951	
C	5.0000000000	40.4818091058	2.8400015068	
C	5.0000000000	41.7116067145	3.5499988365	
C	5.0000000000	39.2520640577	0.7100014558	
C	5.0000000000	40.4818091058	1.4199985951	
C	5.0000000000	42.9413517626	2.8400015068	
C	5.0000000000	41.7116067145	0.7100014558	
C	5.0000000000	42.9413517626	1.4199985951	
H	5.0000000000	5.1047091703	3.3850005407	
H	5.0000000000	5.1047091703	0.8749998152	
H	5.0000000000	43.8852928731	3.3850005407	
H	5.0000000000	43.8852928731	0.8749998152	
K_POINTS (automatic)
1 1 10 0 0 0
CELL_PARAMETERS cubic
10.000000   0.0000000   0.000000
 0.000000  48.9900000   0.000000
 0.000000   0.0000000   4.260000
