 &control
    calculation='relax'
    pseudo_dir = '/home/zfwang/hp_home/MySoftware/qe-6.3/pseudo'
    outdir='/home/zfwang/scratch/GNRDATASET/AGNR/A32',
    prefix='A32',
    tstress = .true.
    tprnfor = .true.
    etot_conv_thr = 1.0D-4,
    forc_conv_thr = 1.0D-3,
    wf_collect = .true.,
 /
 &system
    ibrav = 0,
    celldm(1) = 1.8897261249935,
    nat = 68,
    ntyp = 2,
    ecutwfc =40.d0
    ecutrho =480.d0
    occupations='smearing', smearing='marzari-vanderbilt', degauss=0.01
	nosym=.true
 /
 &electrons
    conv_thr = 1.0D-5
    mixing_beta = 0.7
 /
  &IONS
    ion_dynamics = 'bfgs'
	upscale = 1.0D4
	
 /
ATOMIC_SPECIES
C  12.0107  C.pbe-n-rrkjus_psl.0.1.UPF
H  1.00794  H.pbe-rrkjus_psl.0.1.UPF
ATOMIC_POSITIONS (Angstrom)
C	5.0000000000	6.0487980924	2.8400015068	
C	5.0000000000	7.2785354473	3.5499988365	
C	5.0000000000	6.0487980924	1.4199985951	
C	5.0000000000	8.5082728022	2.8400015068	
C	5.0000000000	9.7380602957	3.5499988365	
C	5.0000000000	7.2785354473	0.7100014558	
C	5.0000000000	8.5082728022	1.4199985951	
C	5.0000000000	10.9677969022	2.8400015068	
C	5.0000000000	12.1975843957	3.5499988365	
C	5.0000000000	9.7380602957	0.7100014558	
C	5.0000000000	10.9677969022	1.4199985951	
C	5.0000000000	13.4273210022	2.8400015068	
C	5.0000000000	14.6570591055	3.5499988365	
C	5.0000000000	12.1975843957	0.7100014558	
C	5.0000000000	13.4273210022	1.4199985951	
C	5.0000000000	15.8868465989	2.8400015068	
C	5.0000000000	17.1165832055	3.5499988365	
C	5.0000000000	14.6570591055	0.7100014558	
C	5.0000000000	15.8868465989	1.4199985951	
C	5.0000000000	18.3463213087	2.8400015068	
C	5.0000000000	19.5761073055	3.5499988365	
C	5.0000000000	17.1165832055	0.7100014558	
C	5.0000000000	18.3463213087	1.4199985951	
C	5.0000000000	20.8058454087	2.8400015068	
C	5.0000000000	22.0356329022	3.5499988365	
C	5.0000000000	19.5761073055	0.7100014558	
C	5.0000000000	20.8058454087	1.4199985951	
C	5.0000000000	23.2653695087	2.8400015068	
C	5.0000000000	24.4951076120	3.5499988365	
C	5.0000000000	22.0356329022	0.7100014558	
C	5.0000000000	23.2653695087	1.4199985951	
C	5.0000000000	25.7248936087	2.8400015068	
C	5.0000000000	26.9546317120	3.5499988365	
C	5.0000000000	24.4951076120	0.7100014558	
C	5.0000000000	25.7248936087	1.4199985951	
C	5.0000000000	28.1843698152	2.8400015068	
C	5.0000000000	29.4141558120	3.5499988365	
C	5.0000000000	26.9546317120	0.7100014558	
C	5.0000000000	28.1843698152	1.4199985951	
C	5.0000000000	30.6438939152	2.8400015068	
C	5.0000000000	31.8736799120	3.5499988365	
C	5.0000000000	29.4141558120	0.7100014558	
C	5.0000000000	30.6438939152	1.4199985951	
C	5.0000000000	33.1034180152	2.8400015068	
C	5.0000000000	34.3331561185	3.5499988365	
C	5.0000000000	31.8736799120	0.7100014558	
C	5.0000000000	33.1034180152	1.4199985951	
C	5.0000000000	35.5629421152	2.8400015068	
C	5.0000000000	36.7926802185	3.5499988365	
C	5.0000000000	34.3331561185	0.7100014558	
C	5.0000000000	35.5629421152	1.4199985951	
C	5.0000000000	38.0224153284	2.8400015068	
C	5.0000000000	39.2522043185	3.5499988365	
C	5.0000000000	36.7926802185	0.7100014558	
C	5.0000000000	38.0224153284	1.4199985951	
C	5.0000000000	40.4819424217	2.8400015068	
C	5.0000000000	41.7117284185	3.5499988365	
C	5.0000000000	39.2522043185	0.7100014558	
C	5.0000000000	40.4819424217	1.4199985951	
C	5.0000000000	42.9414665217	2.8400015068	
C	5.0000000000	44.1712016316	3.5499988365	
C	5.0000000000	41.7117284185	0.7100014558	
C	5.0000000000	42.9414665217	1.4199985951	
C	5.0000000000	44.1712016316	0.7100014558	
H	5.0000000000	5.1048129664	3.3850005407	
H	5.0000000000	5.1048129664	0.8749998152	
H	5.0000000000	45.1151890026	3.0049998026	
H	5.0000000000	45.1151890026	1.2550002993	
K_POINTS (automatic)
1 1 10 0 0 0
CELL_PARAMETERS cubic
10.000000   0.0000000   0.000000
 0.000000  50.2200000   0.000000
 0.000000   0.0000000   4.260000
