 &control
    calculation='relax'
    pseudo_dir = '/home/zfwang/hp_home/MySoftware/qe-6.3/pseudo'
    outdir='/home/zfwang/scratch/GNRDATASET/AGNR/A33',
    prefix='A33',
    tstress = .true.
    tprnfor = .true.
    etot_conv_thr = 1.0D-4,
    forc_conv_thr = 1.0D-3,
    wf_collect = .true.,
 /
 &system
    ibrav = 0,
    celldm(1) = 1.8897261249935,
    nat = 70,
    ntyp = 2,
    ecutwfc =40.d0
    ecutrho =480.d0
    occupations='smearing', smearing='marzari-vanderbilt', degauss=0.01
	nosym=.true
 /
 &electrons
    conv_thr = 1.0D-5
    mixing_beta = 0.7
 /
  &IONS
    ion_dynamics = 'bfgs'
	upscale = 1.0D4
	
 /
ATOMIC_SPECIES
C  12.0107  C.pbe-n-rrkjus_psl.0.1.UPF
H  1.00794  H.pbe-rrkjus_psl.0.1.UPF
ATOMIC_POSITIONS (Angstrom)
C	5.0000000000	6.0489251155	2.8400015068	
C	5.0000000000	7.2786829821	3.5499988365	
C	5.0000000000	6.0489251155	1.4199985951	
C	5.0000000000	8.5083894822	2.8400015068	
C	5.0000000000	9.7381473488	3.5499988365	
C	5.0000000000	7.2786829821	0.7100014558	
C	5.0000000000	8.5083894822	1.4199985951	
C	5.0000000000	10.9679052154	2.8400015068	
C	5.0000000000	12.1976630820	3.5499988365	
C	5.0000000000	9.7381473488	0.7100014558	
C	5.0000000000	10.9679052154	1.4199985951	
C	5.0000000000	13.4274217153	2.8400015068	
C	5.0000000000	14.6571795819	3.5499988365	
C	5.0000000000	12.1976630820	0.7100014558	
C	5.0000000000	13.4274217153	1.4199985951	
C	5.0000000000	15.8869374485	2.8400015068	
C	5.0000000000	17.1166953151	3.5499988365	
C	5.0000000000	14.6571795819	0.7100014558	
C	5.0000000000	15.8869374485	1.4199985951	
C	5.0000000000	18.3464531818	2.8400015068	
C	5.0000000000	19.5762110484	3.5499988365	
C	5.0000000000	17.1166953151	0.7100014558	
C	5.0000000000	18.3464531818	1.4199985951	
C	5.0000000000	20.8059689150	2.8400015068	
C	5.0000000000	22.0357267816	3.5499988365	
C	5.0000000000	19.5762110484	0.7100014558	
C	5.0000000000	20.8059689150	1.4199985951	
C	5.0000000000	23.2654846482	2.8400015068	
C	5.0000000000	24.4952425149	3.5499988365	
C	5.0000000000	22.0357267816	0.7100014558	
C	5.0000000000	23.2654846482	1.4199985951	
C	5.0000000000	25.7250003815	2.8400015068	
C	5.0000000000	26.9547582481	3.5499988365	
C	5.0000000000	24.4952425149	0.7100014558	
C	5.0000000000	25.7250003815	1.4199985951	
C	5.0000000000	28.1845161147	2.8400015068	
C	5.0000000000	29.4142739813	3.5499988365	
C	5.0000000000	26.9547582481	0.7100014558	
C	5.0000000000	28.1845161147	1.4199985951	
C	5.0000000000	30.6440318479	2.8400015068	
C	5.0000000000	31.8737897146	3.5499988365	
C	5.0000000000	29.4142739813	0.7100014558	
C	5.0000000000	30.6440318479	1.4199985951	
C	5.0000000000	33.1035475812	2.8400015068	
C	5.0000000000	34.3333054478	3.5499988365	
C	5.0000000000	31.8737897146	0.7100014558	
C	5.0000000000	33.1035475812	1.4199985951	
C	5.0000000000	35.5630633144	2.8400015068	
C	5.0000000000	36.7928211810	3.5499988365	
C	5.0000000000	34.3333054478	0.7100014558	
C	5.0000000000	35.5630633144	1.4199985951	
C	5.0000000000	38.0225790476	2.8400015068	
C	5.0000000000	39.2523369143	3.5499988365	
C	5.0000000000	36.7928211810	0.7100014558	
C	5.0000000000	38.0225790476	1.4199985951	
C	5.0000000000	40.4820947809	2.8400015068	
C	5.0000000000	41.7118526475	3.5499988365	
C	5.0000000000	39.2523369143	0.7100014558	
C	5.0000000000	40.4820947809	1.4199985951	
C	5.0000000000	42.9416105141	2.8400015068	
C	5.0000000000	44.1713162475	3.5499988365	
C	5.0000000000	41.7118526475	0.7100014558	
C	5.0000000000	42.9416105141	1.4199985951	
C	5.0000000000	45.4010741142	2.8400015068	
C	5.0000000000	44.1713162475	0.7100014558	
C	5.0000000000	45.4010741142	1.4199985951	
H	5.0000000000	5.1049357862	3.3850005407	
H	5.0000000000	5.1049357862	0.8749998152	
H	5.0000000000	46.3450806934	3.3850005407	
H	5.0000000000	46.3450806934	0.8749998152	
K_POINTS (automatic)
1 1 10 0 0 0
CELL_PARAMETERS cubic
10.000000   0.0000000   0.000000
 0.000000  51.4500000   0.000000
 0.000000   0.0000000   4.260000
