 &bands
       prefix='A33',
       outdir='/home/zfwang/scratch/GNRDATASET/AGNR/A33',
       filband='bands_A33.dat',
       lsym=.true.,
 /
