 &control
    calculation='relax'
    pseudo_dir = '/home/zfwang/hp_home/MySoftware/qe-6.3/pseudo'
    outdir='/home/zfwang/scratch/GNRDATASET/AGNR/A34',
    prefix='A34',
    tstress = .true.
    tprnfor = .true.
    etot_conv_thr = 1.0D-4,
    forc_conv_thr = 1.0D-3,
    wf_collect = .true.,
 /
 &system
    ibrav = 0,
    celldm(1) = 1.8897261249935,
    nat = 72,
    ntyp = 2,
    ecutwfc =40.d0
    ecutrho =480.d0
    occupations='smearing', smearing='marzari-vanderbilt', degauss=0.01
	nosym=.true
 /
 &electrons
    conv_thr = 1.0D-5
    mixing_beta = 0.7
 /
  &IONS
    ion_dynamics = 'bfgs'
	upscale = 1.0D4
	
 /
ATOMIC_SPECIES
C  12.0107  C.pbe-n-rrkjus_psl.0.1.UPF
H  1.00794  H.pbe-rrkjus_psl.0.1.UPF
ATOMIC_POSITIONS (Angstrom)
C	5.0000000000	6.0490337797	2.8400015068	
C	5.0000000000	7.2787958471	3.5499988365	
C	5.0000000000	6.0490337797	1.4199985951	
C	5.0000000000	8.5085575221	2.8400015068	
C	5.0000000000	9.7382666025	3.5499988365	
C	5.0000000000	7.2787958471	0.7100014558	
C	5.0000000000	8.5085575221	1.4199985951	
C	5.0000000000	10.9680290625	2.8400015068	
C	5.0000000000	12.1977907375	3.5499988365	
C	5.0000000000	9.7382666025	0.7100014558	
C	5.0000000000	10.9680290625	1.4199985951	
C	5.0000000000	13.4275531974	2.8400015068	
C	5.0000000000	14.6573140874	3.5499988365	
C	5.0000000000	12.1977907375	0.7100014558	
C	5.0000000000	13.4275531974	1.4199985951	
C	5.0000000000	15.8870765474	2.8400015068	
C	5.0000000000	17.1168390074	3.5499988365	
C	5.0000000000	14.6573140874	0.7100014558	
C	5.0000000000	15.8870765474	1.4199985951	
C	5.0000000000	18.3465998973	2.8400015068	
C	5.0000000000	19.5763623573	3.5499988365	
C	5.0000000000	17.1168390074	0.7100014558	
C	5.0000000000	18.3465998973	1.4199985951	
C	5.0000000000	20.8060714377	2.8400015068	
C	5.0000000000	22.0358338977	3.5499988365	
C	5.0000000000	19.5763623573	0.7100014558	
C	5.0000000000	20.8060714377	1.4199985951	
C	5.0000000000	23.2655947877	2.8400015068	
C	5.0000000000	24.4953572476	3.5499988365	
C	5.0000000000	22.0358338977	0.7100014558	
C	5.0000000000	23.2655947877	1.4199985951	
C	5.0000000000	25.7251197076	2.8400015068	
C	5.0000000000	26.9548821676	3.5499988365	
C	5.0000000000	24.4953572476	0.7100014558	
C	5.0000000000	25.7251197076	1.4199985951	
C	5.0000000000	28.1846430575	2.8400015068	
C	5.0000000000	29.4144039475	3.5499988365	
C	5.0000000000	26.9548821676	0.7100014558	
C	5.0000000000	28.1846430575	1.4199985951	
C	5.0000000000	30.6441679775	2.8400015068	
C	5.0000000000	31.8739288675	3.5499988365	
C	5.0000000000	29.4144039475	0.7100014558	
C	5.0000000000	30.6441679775	1.4199985951	
C	5.0000000000	33.1036395179	2.8400015068	
C	5.0000000000	34.3334004078	3.5499988365	
C	5.0000000000	31.8739288675	0.7100014558	
C	5.0000000000	33.1036395179	1.4199985951	
C	5.0000000000	35.5631612978	2.8400015068	
C	5.0000000000	36.7929253278	3.5499988365	
C	5.0000000000	34.3334004078	0.7100014558	
C	5.0000000000	35.5631612978	1.4199985951	
C	5.0000000000	38.0226862178	2.8400015068	
C	5.0000000000	39.2524471077	3.5499988365	
C	5.0000000000	36.7929253278	0.7100014558	
C	5.0000000000	38.0226862178	1.4199985951	
C	5.0000000000	40.4822111377	2.8400015068	
C	5.0000000000	41.7119720277	3.5499988365	
C	5.0000000000	39.2524471077	0.7100014558	
C	5.0000000000	40.4822111377	1.4199985951	
C	5.0000000000	42.9417329176	2.8400015068	
C	5.0000000000	44.1714435681	3.5499988365	
C	5.0000000000	41.7119720277	0.7100014558	
C	5.0000000000	42.9417329176	1.4199985951	
C	5.0000000000	45.4012044580	2.8400015068	
C	5.0000000000	46.6309653480	3.5499988365	
C	5.0000000000	44.1714435681	0.7100014558	
C	5.0000000000	45.4012044580	1.4199985951	
C	5.0000000000	46.6309653480	0.7100014558	
H	5.0000000000	5.1050555430	3.3850005407	
H	5.0000000000	5.1050555430	0.8749998152	
H	5.0000000000	47.5749384823	3.0049998026	
H	5.0000000000	47.5749384823	1.2550002993
K_POINTS (automatic)
1 1 10 0 0 0
CELL_PARAMETERS cubic
10.000000   0.0000000   0.000000
 0.000000  52.6800000   0.000000
 0.000000   0.0000000   4.260000
