 &control
    calculation='relax'
    pseudo_dir = '/home/zfwang/hp_home/MySoftware/qe-6.3/pseudo'
    outdir='/home/zfwang/scratch/GNRDATASET/AGNR/A35',
    prefix='A35',
    tstress = .true.
    tprnfor = .true.
    etot_conv_thr = 1.0D-4,
    forc_conv_thr = 1.0D-3,
    wf_collect = .true.,
 /
 &system
    ibrav = 0,
    celldm(1) = 1.8897261249935,
    nat = 74,
    ntyp = 2,
    ecutwfc =40.d0
    ecutrho =480.d0
    occupations='smearing', smearing='marzari-vanderbilt', degauss=0.01
	nosym=.true
 /
 &electrons
    conv_thr = 1.0D-5
    mixing_beta = 0.7
 /
  &IONS
    ion_dynamics = 'bfgs'
	upscale = 1.0D4
	
 /
ATOMIC_SPECIES
C  12.0107  C.pbe-n-rrkjus_psl.0.1.UPF
H  1.00794  H.pbe-rrkjus_psl.0.1.UPF
ATOMIC_POSITIONS (Angstrom)
C	5.0000000000	6.0491333338	2.8400015068	
C	5.0000000000	7.2789283262	3.5499988365	
C	5.0000000000	6.0491333338	1.4199985951	
C	5.0000000000	8.5086690944	2.8400015068	
C	5.0000000000	9.7384098625	3.5499988365	
C	5.0000000000	7.2789283262	0.7100014558	
C	5.0000000000	8.5086690944	1.4199985951	
C	5.0000000000	10.9681514340	2.8400015068	
C	5.0000000000	12.1979460247	3.5499988365	
C	5.0000000000	9.7384098625	0.7100014558	
C	5.0000000000	10.9681514340	1.4199985951	
C	5.0000000000	13.4276867929	2.8400015068	
C	5.0000000000	14.6574283644	3.5499988365	
C	5.0000000000	12.1979460247	0.7100014558	
C	5.0000000000	13.4276867929	1.4199985951	
C	5.0000000000	15.8871691326	2.8400015068	
C	5.0000000000	17.1169645266	3.5499988365	
C	5.0000000000	14.6574283644	0.7100014558	
C	5.0000000000	15.8871691326	1.4199985951	
C	5.0000000000	18.3467052948	2.8400015068	
C	5.0000000000	19.5764460629	3.5499988365	
C	5.0000000000	17.1169645266	0.7100014558	
C	5.0000000000	18.3467052948	1.4199985951	
C	5.0000000000	20.8062414570	2.8400015068	
C	5.0000000000	22.0359822252	3.5499988365	
C	5.0000000000	19.5764460629	0.7100014558	
C	5.0000000000	20.8062414570	1.4199985951	
C	5.0000000000	23.2657229933	2.8400015068	
C	5.0000000000	24.4954637615	3.5499988365	
C	5.0000000000	22.0359822252	0.7100014558	
C	5.0000000000	23.2657229933	1.4199985951	
C	5.0000000000	25.7252591555	2.8400015068	
C	5.0000000000	26.9549999237	3.5499988365	
C	5.0000000000	24.4954637615	0.7100014558	
C	5.0000000000	25.7252591555	1.4199985951	
C	5.0000000000	28.1847406919	2.8400015068	
C	5.0000000000	29.4145360859	3.5499988365	
C	5.0000000000	26.9549999237	0.7100014558	
C	5.0000000000	28.1847406919	1.4199985951	
C	5.0000000000	30.6442768541	2.8400015068	
C	5.0000000000	31.8740176223	3.5499988365	
C	5.0000000000	29.4145360859	0.7100014558	
C	5.0000000000	30.6442768541	1.4199985951	
C	5.0000000000	33.1037583904	2.8400015068	
C	5.0000000000	34.3335537845	3.5499988365	
C	5.0000000000	31.8740176223	0.7100014558	
C	5.0000000000	33.1037583904	1.4199985951	
C	5.0000000000	35.5632945526	2.8400015068	
C	5.0000000000	36.7930353208	3.5499988365	
C	5.0000000000	34.3335537845	0.7100014558	
C	5.0000000000	35.5632945526	1.4199985951	
C	5.0000000000	38.0228307148	2.8400015068	
C	5.0000000000	39.2525714830	3.5499988365	
C	5.0000000000	36.7930353208	0.7100014558	
C	5.0000000000	38.0228307148	1.4199985951	
C	5.0000000000	40.4823122512	2.8400015068	
C	5.0000000000	41.7120530194	3.5499988365	
C	5.0000000000	39.2525714830	0.7100014558	
C	5.0000000000	40.4823122512	1.4199985951	
C	5.0000000000	42.9418484134	2.8400015068	
C	5.0000000000	44.1715891816	3.5499988365	
C	5.0000000000	41.7120530194	0.7100014558	
C	5.0000000000	42.9418484134	1.4199985951	
C	5.0000000000	45.4013299497	2.8400015068	
C	5.0000000000	46.6310707179	3.5499988365	
C	5.0000000000	44.1715891816	0.7100014558	
C	5.0000000000	45.4013299497	1.4199985951	
C	5.0000000000	47.8608661119	2.8400015068	
C	5.0000000000	46.6310707179	0.7100014558	
C	5.0000000000	47.8608661119	1.4199985951	
H	5.0000000000	5.1051798473	3.3850005407	
H	5.0000000000	5.1051798473	0.8749998152	
H	5.0000000000	48.8048300417	3.3850005407	
H	5.0000000000	48.8048300417	0.8749998152	
K_POINTS (automatic)
1 1 10 0 0 0
CELL_PARAMETERS cubic
10.000000   0.0000000   0.000000
 0.000000  53.9100000   0.000000
 0.000000   0.0000000   4.260000
