 &control
    calculation='relax'
    pseudo_dir = '/home/zfwang/hp_home/MySoftware/qe-6.3/pseudo'
    outdir='/home/zfwang/scratch/GNRDATASET/AGNR/A36',
    prefix='A36',
    tstress = .true.
    tprnfor = .true.
    etot_conv_thr = 1.0D-4,
    forc_conv_thr = 1.0D-3,
    wf_collect = .true.,
 /
 &system
    ibrav = 0,
    celldm(1) = 1.8897261249935,
    nat = 76,
    ntyp = 2,
    ecutwfc =40.d0
    ecutrho =480.d0
    occupations='smearing', smearing='marzari-vanderbilt', degauss=0.01
	nosym=.true
 /
 &electrons
    conv_thr = 1.0D-5
    mixing_beta = 0.7
 /
  &IONS
    ion_dynamics = 'bfgs'
	upscale = 1.0D4
	
 /
ATOMIC_SPECIES
C  12.0107  C.pbe-n-rrkjus_psl.0.1.UPF
H  1.00794  H.pbe-rrkjus_psl.0.1.UPF
ATOMIC_POSITIONS (Angstrom)
C	5.0000000000	6.0492437957	2.8400015068	
C	5.0000000000	7.2790312072	3.5499988365	
C	5.0000000000	6.0492437957	1.4199985951	
C	5.0000000000	8.5087635681	2.8400015068	
C	5.0000000000	9.7385509796	3.5499988365	
C	5.0000000000	7.2790312072	0.7100014558	
C	5.0000000000	8.5087635681	1.4199985951	
C	5.0000000000	10.9682833405	2.8400015068	
C	5.0000000000	12.1980707520	3.5499988365	
C	5.0000000000	9.7385509796	0.7100014558	
C	5.0000000000	10.9682833405	1.4199985951	
C	5.0000000000	13.4278031129	2.8400015068	
C	5.0000000000	14.6575346522	3.5499988365	
C	5.0000000000	12.1980707520	0.7100014558	
C	5.0000000000	13.4278031129	1.4199985951	
C	5.0000000000	15.8873228854	2.8400015068	
C	5.0000000000	17.1170552463	3.5499988365	
C	5.0000000000	14.6575346522	0.7100014558	
C	5.0000000000	15.8873228854	1.4199985951	
C	5.0000000000	18.3468418361	2.8400015068	
C	5.0000000000	19.5765741971	3.5499988365	
C	5.0000000000	17.1170552463	0.7100014558	
C	5.0000000000	18.3468418361	1.4199985951	
C	5.0000000000	20.8063624302	2.8400015068	
C	5.0000000000	22.0360947912	3.5499988365	
C	5.0000000000	19.5765741971	0.7100014558	
C	5.0000000000	20.8063624302	1.4199985951	
C	5.0000000000	23.2658271521	2.8400015068	
C	5.0000000000	24.4956137419	3.5499988365	
C	5.0000000000	22.0360947912	0.7100014558	
C	5.0000000000	23.2658271521	1.4199985951	
C	5.0000000000	25.7253461029	2.8400015068	
C	5.0000000000	26.9551343360	3.5499988365	
C	5.0000000000	24.4956137419	0.7100014558	
C	5.0000000000	25.7253461029	1.4199985951	
C	5.0000000000	28.1848666969	2.8400015068	
C	5.0000000000	29.4146532868	3.5499988365	
C	5.0000000000	26.9551343360	0.7100014558	
C	5.0000000000	28.1848666969	1.4199985951	
C	5.0000000000	30.6443840044	2.8400015068	
C	5.0000000000	31.8741738809	3.5499988365	
C	5.0000000000	29.4146532868	0.7100014558	
C	5.0000000000	30.6443840044	1.4199985951	
C	5.0000000000	33.1039045985	2.8400015068	
C	5.0000000000	34.3336386027	3.5499988365	
C	5.0000000000	31.8741738809	0.7100014558	
C	5.0000000000	33.1039045985	1.4199985951	
C	5.0000000000	35.5634251926	2.8400015068	
C	5.0000000000	36.7931559102	3.5499988365	
C	5.0000000000	34.3336386027	0.7100014558	
C	5.0000000000	35.5634251926	1.4199985951	
C	5.0000000000	38.0229457866	2.8400015068	
C	5.0000000000	39.2526765043	3.5499988365	
C	5.0000000000	36.7931559102	0.7100014558	
C	5.0000000000	38.0229457866	1.4199985951	
C	5.0000000000	40.4824630941	2.8400015068	
C	5.0000000000	41.7121970984	3.5499988365	
C	5.0000000000	39.2526765043	0.7100014558	
C	5.0000000000	40.4824630941	1.4199985951	
C	5.0000000000	42.9419278160	2.8400015068	
C	5.0000000000	44.1717176924	3.5499988365	
C	5.0000000000	41.7121970984	0.7100014558	
C	5.0000000000	42.9419278160	1.4199985951	
C	5.0000000000	45.4014484101	2.8400015068	
C	5.0000000000	46.6312349999	3.5499988365	
C	5.0000000000	44.1717176924	0.7100014558	
C	5.0000000000	45.4014484101	1.4199985951	
C	5.0000000000	47.8609690041	2.8400015068	
C	5.0000000000	49.0907555940	3.5499988365	
C	5.0000000000	46.6312349999	0.7100014558	
C	5.0000000000	47.8609690041	1.4199985951	
C	5.0000000000	49.0907555940	0.7100014558	
H	5.0000000000	5.1053022635	3.3850005407	
H	5.0000000000	5.1053022635	0.8749998152	
H	5.0000000000	50.0346967154	3.0049998026	
H	5.0000000000	50.0346967154	1.2550002993	
K_POINTS (automatic)
1 1 10 0 0 0
CELL_PARAMETERS cubic
10.000000   0.0000000   0.000000
 0.000000  55.1400000   0.000000
 0.000000   0.0000000   4.260000
