 &control
    calculation='relax'
    pseudo_dir = '/home/zfwang/hp_home/MySoftware/qe-6.3/pseudo'
    outdir='/home/zfwang/scratch/GNRDATASET/AGNR/A7',
    prefix='A7',
    tstress = .true.
    tprnfor = .true.
    etot_conv_thr = 1.0D-4,
    forc_conv_thr = 1.0D-3,
    wf_collect = .true.,
 /
 &system
    ibrav = 0,
    celldm(1) = 1.8897261249935,
    nat = 18,
    ntyp = 2,
    ecutwfc =40.d0
    ecutrho =480.d0
    occupations='smearing', smearing='marzari-vanderbilt', degauss=0.01
	nosym=.true
 /
 &electrons
    conv_thr = 1.0D-5
    mixing_beta = 0.7
 /
  &IONS
    ion_dynamics = 'bfgs'
	upscale = 1.0D4
	
 /
ATOMIC_SPECIES
C  12.0107  C.pbe-n-rrkjus_psl.0.1.UPF
H  1.00794  H.pbe-rrkjus_psl.0.1.UPF
ATOMIC_POSITIONS (Angstrom)
C	5.0000000000	6.0457265742	2.8400015068	
C	5.0000000000	7.2754906511	3.5499988365	
C	5.0000000000	6.0457265742	1.4199985951	
C	5.0000000000	8.5052355798	2.8400015068	
C	5.0000000000	9.7349996567	3.5499988365	
C	5.0000000000	7.2754906511	0.7100014558	
C	5.0000000000	8.5052355798	1.4199985951	
C	5.0000000000	10.9647643138	2.8400015068	
C	5.0000000000	12.1945080820	3.5499988365	
C	5.0000000000	9.7349996567	0.7100014558	
C	5.0000000000	10.9647643138	1.4199985951	
C	5.0000000000	13.4242727391	2.8400015068	
C	5.0000000000	12.1945080820	0.7100014558	
C	5.0000000000	13.4242727391	1.4199985951	
H	5.0000000000	5.1017629031	3.3850005407	
H	5.0000000000	5.1017629031	0.8749998152	
H	5.0000000000	14.3682369905	3.3850005407	
H	5.0000000000	14.3682369905	0.8749998152		
K_POINTS (automatic)
1 1 10 0 0 0
CELL_PARAMETERS cubic
10.000000   0.0000000   0.000000
 0.000000  19.4700000   0.000000
 0.000000   0.0000000   4.260000
