 &control
    calculation='nscf'
    pseudo_dir = '/home/zfwang/hp_home/MySoftware/qe-6.3/pseudo',
    outdir='/home/zfwang/scratch/GNRDATASET/AGNR/A8'
    prefix='A8'
    wf_collect = .true.
 /
 &system
    ibrav = 0,
    celldm(1) = 1.8897261249935,
    nat = 20,
    ntyp = 2,
    ecutwfc=40.0,
    ecutrho=480.d0,
    nbnd=500,nosym=.true.,
    occupations='smearing', smearing='marzari-vanderbilt', degauss=0.01
 /
 &electrons
    conv_thr = 1.0D-5
    mixing_beta = 0.7
 /
ATOMIC_SPECIES
C  12.0107  C.pbe-n-rrkjus_psl.0.1.UPF
H  1.00794  H.pbe-rrkjus_psl.0.1.UPF
ATOMIC_POSITIONS (Angstrom)
C	5.0000000000	6.0458492511	2.8400015068	
C	5.0000000000	7.2756154417	3.5499988365	
C	5.0000000000	6.0458492511	1.4199985951	
C	5.0000000000	8.5053612744	2.8400015068	
C	5.0000000000	9.7351274651	3.5499988365	
C	5.0000000000	7.2756154417	0.7100014558	
C	5.0000000000	8.5053612744	1.4199985951	
C	5.0000000000	10.9648726809	2.8400015068	
C	5.0000000000	12.1946394885	3.5499988365	
C	5.0000000000	9.7351274651	0.7100014558	
C	5.0000000000	10.9648726809	1.4199985951	
C	5.0000000000	13.4243853212	2.8400015068	
C	5.0000000000	14.6541521288	3.5499988365	
C	5.0000000000	12.1946394885	0.7100014558	
C	5.0000000000	13.4243853212	1.4199985951	
C	5.0000000000	14.6541521288	0.7100014558	
H	5.0000000000	5.1018876362	3.3850005407	
H	5.0000000000	5.1018876362	0.8749998152	
H	5.0000000000	15.5981128183	3.0049998026	
H	5.0000000000	15.5981128183	1.2550002993		
K_POINTS (automatic)
1 1 50 0 0 0
CELL_PARAMETERS cubic
10.000000   0.0000000   0.000000
 0.000000  20.700000   0.000000
 0.000000   0.0000000   4.260000
