 &control
    calculation='nscf'
    pseudo_dir = '/home/zfwang/hp_home/MySoftware/qe-6.3/pseudo',
    outdir='/home/zfwang/scratch/GNRDATASET/AGNR/F10'
    prefix='F10'
    wf_collect = .true.
 /
 &system
    ibrav = 0,
    celldm(1) = 1.8897261249935,
    nat = 24,
    ntyp = 2,
    ecutwfc=40.0,
    ecutrho=480.d0,
    nbnd=500,nosym=.true.,
    occupations='smearing', smearing='marzari-vanderbilt', degauss=0.01
 /
 &electrons
    conv_thr = 1.0D-5
    mixing_beta = 0.7
 /
ATOMIC_SPECIES
C  12.0107  C.pbe-n-rrkjus_psl.0.1.UPF
F  18.9984  F.pbe-n-rrkjus_psl.0.1.UPF
ATOMIC_POSITIONS (Angstrom)
C	5.0000000000	6.0461033029	2.8400015068	
C	5.0000000000	7.2758528159	3.5499988365	
C	5.0000000000	6.0461033029	1.4199985951	
C	5.0000000000	8.5056023288	2.8400015068	
C	5.0000000000	9.7353753092	3.5499988365	
C	5.0000000000	7.2758528159	0.7100014558	
C	5.0000000000	8.5056023288	1.4199985951	
C	5.0000000000	10.9651248221	2.8400015068	
C	5.0000000000	12.1948743351	3.5499988365	
C	5.0000000000	9.7353753092	0.7100014558	
C	5.0000000000	10.9651248221	1.4199985951	
C	5.0000000000	13.4246245382	2.8400015068	
C	5.0000000000	14.6543968284	3.5499988365	
C	5.0000000000	12.1948743351	0.7100014558	
C	5.0000000000	13.4246245382	1.4199985951	
C	5.0000000000	15.8841470316	2.8400015068	
C	5.0000000000	17.1138972347	3.5499988365	
C	5.0000000000	14.6543968284	0.7100014558	
C	5.0000000000	15.8841470316	1.4199985951	
C	5.0000000000	17.1138972347	0.7100014558	
F	5.0000000000	4.7831034700	3.2653353200	
F	5.0000000000	4.7831034700	0.9946646100	
F	5.0000000000	18.3768978100	3.1246633500	
F	5.0000000000	18.3768978100	1.1353354500				
K_POINTS (automatic)
1 1 50 0 0 0
CELL_PARAMETERS cubic
10.000000   0.0000000   0.000000
 0.000000  23.1600000   0.000000
 0.000000   0.0000000   4.260000
