 &control
    calculation='relax'
    pseudo_dir = '/home/zfwang/hp_home/MySoftware/qe-6.3/pseudo'
    outdir='/home/zfwang/scratch/GNRDATASET/AGNR/F12',
    prefix='F12',
    tstress = .true.
    tprnfor = .true.
    etot_conv_thr = 1.0D-4,
    forc_conv_thr = 1.0D-3,
    wf_collect = .true.,
 /
 &system
    ibrav = 0,
    celldm(1) = 1.8897261249935,
    nat = 28,
    ntyp = 2,
    ecutwfc =40.d0
    ecutrho =480.d0
    occupations='smearing', smearing='marzari-vanderbilt', degauss=0.01
	nosym=.true
 /
 &electrons
    conv_thr = 1.0D-5
    mixing_beta = 0.7
 /
  &IONS
    ion_dynamics = 'bfgs'
	upscale = 1.0D4
	
 /
ATOMIC_SPECIES
C  12.0107  C.pbe-n-rrkjus_psl.0.1.UPF
F  18.9984  F.pbe-n-rrkjus_psl.0.1.UPF
ATOMIC_POSITIONS (Angstrom)
C	5.0000000000	6.0463458131	2.8400015068	
C	5.0000000000	7.2761056732	3.5499988365	
C	5.0000000000	6.0463458131	1.4199985951	
C	5.0000000000	8.5058659151	2.8400015068	
C	5.0000000000	9.7356001967	3.5499988365	
C	5.0000000000	7.2761056732	0.7100014558	
C	5.0000000000	8.5058659151	1.4199985951	
C	5.0000000000	10.9653604386	2.8400015068	
C	5.0000000000	12.1951206805	3.5499988365	
C	5.0000000000	9.7356001967	0.7100014558	
C	5.0000000000	10.9653604386	1.4199985951	
C	5.0000000000	13.4248801588	2.8400015068	
C	5.0000000000	14.6546411642	3.5499988365	
C	5.0000000000	12.1951206805	0.7100014558	
C	5.0000000000	13.4248801588	1.4199985951	
C	5.0000000000	15.8844006425	2.8400015068	
C	5.0000000000	17.1141356877	3.5499988365	
C	5.0000000000	14.6546411642	0.7100014558	
C	5.0000000000	15.8844006425	1.4199985951	
C	5.0000000000	18.3438951660	2.8400015068	
C	5.0000000000	19.5736546443	3.5499988365	
C	5.0000000000	17.1141356877	0.7100014558	
C	5.0000000000	18.3438951660	1.4199985951	
C	5.0000000000	19.5736546443	0.7100014558	
F	5.0000000000	4.7833457000	3.2653353200	
F	5.0000000000	4.7833457000	0.9946646100	
F	5.0000000000	20.8366546600	3.1246633500	
F	5.0000000000	20.8366546600	1.1353354500				
K_POINTS (automatic)
1 1 10 0 0 0
CELL_PARAMETERS cubic
10.000000   0.0000000   0.000000
 0.000000  25.6200000   0.000000
 0.000000   0.0000000   4.260000
