 &control
    calculation='relax'
    pseudo_dir = '/home/zfwang/hp_home/MySoftware/qe-6.3/pseudo'
    outdir='/home/zfwang/scratch/GNRDATASET/AGNR/F13',
    prefix='F13',
    tstress = .true.
    tprnfor = .true.
    etot_conv_thr = 1.0D-4,
    forc_conv_thr = 1.0D-3,
    wf_collect = .true.,
 /
 &system
    ibrav = 0,
    celldm(1) = 1.8897261249935,
    nat = 30,
    ntyp = 2,
    ecutwfc =40.d0
    ecutrho =480.d0
    occupations='smearing', smearing='marzari-vanderbilt', degauss=0.01
	nosym=.true
 /
 &electrons
    conv_thr = 1.0D-5
    mixing_beta = 0.7
 /
  &IONS
    ion_dynamics = 'bfgs'
	upscale = 1.0D4
	
 /
ATOMIC_SPECIES
C  12.0107  C.pbe-n-rrkjus_psl.0.1.UPF
F  18.9984  F.pbe-n-rrkjus_psl.0.1.UPF
ATOMIC_POSITIONS (Angstrom)
C	5.0000000000	6.0464591781	2.8400015068	
C	5.0000000000	7.2762156134	3.5499988365	
C	5.0000000000	6.0464591781	1.4199985951	
C	5.0000000000	8.5059728490	2.8400015068	
C	5.0000000000	9.7357292843	3.5499988365	
C	5.0000000000	7.2762156134	0.7100014558	
C	5.0000000000	8.5059728490	1.4199985951	
C	5.0000000000	10.9654865199	2.8400015068	
C	5.0000000000	12.1952429552	3.5499988365	
C	5.0000000000	9.7357292843	0.7100014558	
C	5.0000000000	10.9654865199	1.4199985951	
C	5.0000000000	13.4250001907	2.8400015068	
C	5.0000000000	14.6547566261	3.5499988365	
C	5.0000000000	12.1952429552	0.7100014558	
C	5.0000000000	13.4250001907	1.4199985951	
C	5.0000000000	15.8845146618	2.8400015068	
C	5.0000000000	17.1142710971	3.5499988365	
C	5.0000000000	14.6547566261	0.7100014558	
C	5.0000000000	15.8845146618	1.4199985951	
C	5.0000000000	18.3440275325	2.8400015068	
C	5.0000000000	19.5737839678	3.5499988365	
C	5.0000000000	17.1142710971	0.7100014558	
C	5.0000000000	18.3440275325	1.4199985951	
C	5.0000000000	20.8035420036	2.8400015068	
C	5.0000000000	19.5737839678	0.7100014558	
C	5.0000000000	20.8035420036	1.4199985951	
F	5.0000000000	4.7834591900	3.2653353200	
F	5.0000000000	4.7834591900	0.9946646100	
F	5.0000000000	22.0665416700	3.2653353200	
F	5.0000000000	22.0665416700	0.9946646100				
K_POINTS (automatic)
1 1 10 0 0 0
CELL_PARAMETERS cubic
10.000000   0.0000000   0.000000
 0.000000  26.8500000   0.000000
 0.000000   0.0000000   4.260000
