 &control
    calculation='relax'
    pseudo_dir = '/home/zfwang/hp_home/MySoftware/qe-6.3/pseudo'
    outdir='/home/zfwang/scratch/GNRDATASET/AGNR/F14',
    prefix='F14',
    tstress = .true.
    tprnfor = .true.
    etot_conv_thr = 1.0D-4,
    forc_conv_thr = 1.0D-3,
    wf_collect = .true.,
 /
 &system
    ibrav = 0,
    celldm(1) = 1.8897261249935,
    nat = 32,
    ntyp = 2,
    ecutwfc =40.d0
    ecutrho =480.d0
    occupations='smearing', smearing='marzari-vanderbilt', degauss=0.01
	nosym=.true
 /
 &electrons
    conv_thr = 1.0D-5
    mixing_beta = 0.7
 /
  &IONS
    ion_dynamics = 'bfgs'
	upscale = 1.0D4
	
 /
ATOMIC_SPECIES
C  12.0107  C.pbe-n-rrkjus_psl.0.1.UPF
F  18.9984  F.pbe-n-rrkjus_psl.0.1.UPF
ATOMIC_POSITIONS (Angstrom)
C	5.0000000000	6.0465786531	2.8400015068	
C	5.0000000000	7.2763419573	3.5499988365	
C	5.0000000000	6.0465786531	1.4199985951	
C	5.0000000000	8.5061060984	2.8400015068	
C	5.0000000000	9.7358417866	3.5499988365	
C	5.0000000000	7.2763419573	0.7100014558	
C	5.0000000000	8.5061060984	1.4199985951	
C	5.0000000000	10.9656050909	2.8400015068	
C	5.0000000000	12.1953683951	3.5499988365	
C	5.0000000000	9.7358417866	0.7100014558	
C	5.0000000000	10.9656050909	1.4199985951	
C	5.0000000000	13.4251325362	2.8400015068	
C	5.0000000000	14.6548682244	3.5499988365	
C	5.0000000000	12.1953683951	0.7100014558	
C	5.0000000000	13.4251325362	1.4199985951	
C	5.0000000000	15.8846315286	2.8400015068	
C	5.0000000000	17.1143948328	3.5499988365	
C	5.0000000000	14.6548682244	0.7100014558	
C	5.0000000000	15.8846315286	1.4199985951	
C	5.0000000000	18.3441581371	2.8400015068	
C	5.0000000000	19.5738946621	3.5499988365	
C	5.0000000000	17.1143948328	0.7100014558	
C	5.0000000000	18.3441581371	1.4199985951	
C	5.0000000000	20.8036579664	2.8400015068	
C	5.0000000000	22.0334212706	3.5499988365	
C	5.0000000000	19.5738946621	0.7100014558	
C	5.0000000000	20.8036579664	1.4199985951	
C	5.0000000000	22.0334212706	0.7100014558	
F	5.0000000000	4.7835788700	3.2653353200	
F	5.0000000000	4.7835788700	0.9946646100	
F	5.0000000000	23.2964210500	3.1246633500	
F	5.0000000000	23.2964210500	1.1353354500				
K_POINTS (automatic)
1 1 10 0 0 0
CELL_PARAMETERS cubic
10.000000   0.0000000   0.000000
 0.000000  28.0800000   0.000000
 0.000000   0.0000000   4.260000
