 &control
    calculation='nscf'
    pseudo_dir = '/home/zfwang/hp_home/MySoftware/qe-6.3/pseudo',
    outdir='/home/zfwang/scratch/GNRDATASET/AGNR/F7'
    prefix='F7'
    wf_collect = .true.
 /
 &system
    ibrav = 0,
    celldm(1) = 1.8897261249935,
    nat = 18,
    ntyp = 2,
    ecutwfc=40.0,
    ecutrho=480.d0,
    nbnd=500,nosym=.true.,
    occupations='smearing', smearing='marzari-vanderbilt', degauss=0.01
 /
 &electrons
    conv_thr = 1.0D-5
    mixing_beta = 0.7
 /
ATOMIC_SPECIES
C  12.0107  C.pbe-n-rrkjus_psl.0.1.UPF
F  18.9984  F.pbe-n-rrkjus_psl.0.1.UPF
ATOMIC_POSITIONS (Angstrom)
C	5.0000000000	6.0457265742	2.8400015068	
C	5.0000000000	7.2754906511	3.5499988365	
C	5.0000000000	6.0457265742	1.4199985951	
C	5.0000000000	8.5052355798	2.8400015068	
C	5.0000000000	9.7349996567	3.5499988365	
C	5.0000000000	7.2754906511	0.7100014558	
C	5.0000000000	8.5052355798	1.4199985951	
C	5.0000000000	10.9647643138	2.8400015068	
C	5.0000000000	12.1945080820	3.5499988365	
C	5.0000000000	9.7349996567	0.7100014558	
C	5.0000000000	10.9647643138	1.4199985951	
C	5.0000000000	13.4242727391	2.8400015068	
C	5.0000000000	12.1945080820	0.7100014558	
C	5.0000000000	13.4242727391	1.4199985951	
F	5.0000000000	4.7827267600	3.2653353200	
F	5.0000000000	4.7827267600	0.9946646100	
F	5.0000000000	14.6872730300	3.2653353200	
F	5.0000000000	14.6872730300	0.9946646100			
K_POINTS (automatic)
1 1 50 0 0 0
CELL_PARAMETERS cubic
10.000000   0.0000000   0.000000
 0.000000  19.4700000   0.000000
 0.000000   0.0000000   4.260000
