 &bands
       prefix='F8',
       outdir='/home/zfwang/scratch/GNRDATASET/AGNR/F8',
       filband='bands_F8.dat',
       lsym=.true.,
 /
