 &control
    calculation='relax'
    pseudo_dir = '/home/zfwang/hp_home/MySoftware/qe-6.3/pseudo'
    outdir='/home/zfwang/scratch/GNRDATASET/AGNR/F8',
    prefix='F8',
    tstress = .true.
    tprnfor = .true.
    etot_conv_thr = 1.0D-4,
    forc_conv_thr = 1.0D-3,
    wf_collect = .true.,
 /
 &system
    ibrav = 0,
    celldm(1) = 1.8897261249935,
    nat = 20,
    ntyp = 2,
    ecutwfc =40.d0
    ecutrho =480.d0
    occupations='smearing', smearing='marzari-vanderbilt', degauss=0.01
	nosym=.true
 /
 &electrons
    conv_thr = 1.0D-5
    mixing_beta = 0.7
 /
  &IONS
    ion_dynamics = 'bfgs'
	upscale = 1.0D4
	
 /
ATOMIC_SPECIES
C  12.0107  C.pbe-n-rrkjus_psl.0.1.UPF
F  18.9984  F.pbe-n-rrkjus_psl.0.1.UPF
ATOMIC_POSITIONS (Angstrom)
C	5.0000000000	6.0458492511	2.8400015068	
C	5.0000000000	7.2756154417	3.5499988365	
C	5.0000000000	6.0458492511	1.4199985951	
C	5.0000000000	8.5053612744	2.8400015068	
C	5.0000000000	9.7351274651	3.5499988365	
C	5.0000000000	7.2756154417	0.7100014558	
C	5.0000000000	8.5053612744	1.4199985951	
C	5.0000000000	10.9648726809	2.8400015068	
C	5.0000000000	12.1946394885	3.5499988365	
C	5.0000000000	9.7351274651	0.7100014558	
C	5.0000000000	10.9648726809	1.4199985951	
C	5.0000000000	13.4243853212	2.8400015068	
C	5.0000000000	14.6541521288	3.5499988365	
C	5.0000000000	12.1946394885	0.7100014558	
C	5.0000000000	13.4243853212	1.4199985951	
C	5.0000000000	14.6541521288	0.7100014558	
F	5.0000000000	4.7828493100	3.2653353200	
F	5.0000000000	4.7828493100	0.9946646100	
F	5.0000000000	15.9171524000	3.1246633500	
F	5.0000000000	15.9171524000	1.1353354500		
K_POINTS (automatic)
1 1 10 0 0 0
CELL_PARAMETERS cubic
10.000000   0.0000000   0.000000
 0.000000  20.700000   0.000000
 0.000000   0.0000000   4.260000
