 &control
    calculation='nscf'
    pseudo_dir = '/home/zfwang/hp_home/MySoftware/qe-6.3/pseudo',
    outdir='/home/zfwang/scratch/GNRDATASET/AGNR/F9'
    prefix='F9'
    wf_collect = .true.
 /
 &system
    ibrav = 0,
    celldm(1) = 1.8897261249935,
    nat = 22,
    ntyp = 2,
    ecutwfc=40.0,
    ecutrho=480.d0,
    nbnd=500,nosym=.true.,
    occupations='smearing', smearing='marzari-vanderbilt', degauss=0.01
 /
 &electrons
    conv_thr = 1.0D-5
    mixing_beta = 0.7
 /
ATOMIC_SPECIES
C  12.0107  C.pbe-n-rrkjus_psl.0.1.UPF
F  18.9984  F.pbe-n-rrkjus_psl.0.1.UPF
ATOMIC_POSITIONS (Angstrom)
C	5.0000000000	6.0459697814	2.8400015068	
C	5.0000000000	7.2757378312	3.5499988365	
C	5.0000000000	6.0459697814	1.4199985951	
C	5.0000000000	8.5054849670	2.8400015068	
C	5.0000000000	9.7352536704	3.5499988365	
C	5.0000000000	7.2757378312	0.7100014558	
C	5.0000000000	8.5054849670	1.4199985951	
C	5.0000000000	10.9650001526	2.8400015068	
C	5.0000000000	12.1947466348	3.5499988365	
C	5.0000000000	9.7352536704	0.7100014558	
C	5.0000000000	10.9650001526	1.4199985951	
C	5.0000000000	13.4245153382	2.8400015068	
C	5.0000000000	14.6542618204	3.5499988365	
C	5.0000000000	12.1947466348	0.7100014558	
C	5.0000000000	13.4245153382	1.4199985951	
C	5.0000000000	15.8840305238	2.8400015068	
C	5.0000000000	14.6542618204	0.7100014558	
C	5.0000000000	15.8840305238	1.4199985951	
F	5.0000000000	4.7829699500	3.2653353200	
F	5.0000000000	4.7829699500	0.9946646100	
F	5.0000000000	17.1470298800	3.2653353200	
F	5.0000000000	17.1470298800	0.9946646100	
K_POINTS (automatic)
1 1 50 0 0 0
CELL_PARAMETERS cubic
10.000000   0.0000000   0.000000
 0.000000  21.9300000   0.000000
 0.000000   0.0000000   4.260000
