 &control
    calculation='relax'
    pseudo_dir = '/home/zfwang/hp_home/MySoftware/qe-6.3/pseudo'
    outdir='/home/zfwang/scratch/GNRDATASET/AGNR/C_2Z_2A_W9',
    prefix='C_2Z_2A_W9',
    tstress = .true.
    tprnfor = .true.
    etot_conv_thr = 1.0D-4,
    forc_conv_thr = 1.0D-3,
    wf_collect = .true.,
 /
 &system
    ibrav = 0,
    celldm(1) = 1.8897261249935,
    nat = 64,
    ntyp = 2,
    ecutwfc =40.d0
    ecutrho =480.d0
    occupations='smearing', smearing='marzari-vanderbilt', degauss=0.01
	nosym=.true
 /
 &electrons
    conv_thr = 1.0D-5
    mixing_beta = 0.7
 /
  &IONS
    ion_dynamics = 'bfgs'
	upscale = 1.0D4
	
 /
ATOMIC_SPECIES
C  12.0107  C.pbe-n-rrkjus_psl.0.1.UPF
H  1.00794  H.pbe-rrkjus_psl.0.1.UPF
ATOMIC_POSITIONS (Angstrom)
C	5.0000000000	9.6326100826	4.1804643547	
C	5.0000000000	10.4374498129	8.3637521463	
C	5.0000000000	11.2422600389	12.5470395501	
C	5.0000000000	10.7060998678	3.2509258806	
C	5.0000000000	11.5109100938	7.4342132845	
C	5.0000000000	12.3157203197	11.6175006884	
C	5.0000000000	12.0478498936	3.7158120177	
C	5.0000000000	12.8526601195	7.8990994216	
C	5.0000000000	13.6574703455	12.0823744182	
C	5.0000000000	9.9008998275	5.5749021486	
C	5.0000000000	10.7057100534	9.7581895524	
C	5.0000000000	10.4378101230	1.8565010757	
C	5.0000000000	11.2426498532	6.0397886734	
C	5.0000000000	12.0474600792	10.2230632822	
C	5.0000000000	13.1213101745	2.7862607486	
C	5.0000000000	13.9261204004	6.9695481525	
C	5.0000000000	14.7309601307	11.1528355564	
C	5.0000000000	14.4630602002	3.2511470796	
C	5.0000000000	15.2678704262	7.4344342896	
C	5.0000000000	16.0726797581	11.6177216935	
C	5.0000000000	11.5112999082	0.9269533931	
C	5.0000000000	12.3161101341	5.1102370166	
C	5.0000000000	13.1209203601	9.2935244204	
C	5.0000000000	12.8530499339	1.3918358467	
C	5.0000000000	13.6578601599	5.5751235414	
C	5.0000000000	14.4626703858	9.7584105575	
C	5.0000000000	15.5365204811	2.3216086055	
C	5.0000000000	16.3413602114	6.5048830205	
C	5.0000000000	17.1461695433	10.6881704244	
C	5.0000000000	16.8782705069	2.7864817537	
C	5.0000000000	17.6831102371	6.9697691576	
C	5.0000000000	18.4879195690	11.1530565615	
C	5.0000000000	13.9265102148	0.4622921383	
C	5.0000000000	14.7313204408	4.6455718846	
C	5.0000000000	15.5361592770	8.8288592884	
C	5.0000000000	15.2682602406	0.9271758521	
C	5.0000000000	16.0730695724	5.1104580217	
C	5.0000000000	16.8779093027	9.2937454255	
C	5.0000000000	17.9517602921	1.8569432797	
C	5.0000000000	18.7565696239	6.0402306836	
C	5.0000000000	19.5613807440	10.2235184751	
C	5.0000000000	19.2935103178	2.3218296106	
C	5.0000000000	16.3417500257	13.0076314592	
C	5.0000000000	17.1465593576	4.1809195476	
C	5.0000000000	17.9513704777	8.3641941565	
C	5.0000000000	18.7561798096	12.5474815603	
C	5.0000000000	17.6834696531	0.4625145974	
C	5.0000000000	18.4883093834	4.6458060724	
C	5.0000000000	19.2931205034	8.8290802935	
C	5.0000000000	20.0979298353	0.0023418785	
C	5.0000000000	20.3669697046	1.3922781477	
C	5.0000000000	19.5617705584	3.7162544156	
H	5.0000000000	8.6026802659	3.8236260532	
H	5.0000000000	9.4074895978	8.0069134571	
H	5.0000000000	10.2119100094	12.1913586174	
H	5.0000000000	9.0768903494	6.2884224970	
H	5.0000000000	9.8816996813	10.4717102886	
H	5.0000000000	9.4078803062	1.4996496884	
H	5.0000000000	19.7865003347	6.3970689850	
H	5.0000000000	20.5913096666	10.5803563889	
H	5.0000000000	20.1171308756	8.1155603329	
H	5.0000000000	20.9219402075	12.2988477367	
H	5.0000000000	21.3973206282	1.7479584988	
H	5.0000000000	20.5916994810	4.0731058998	
K_POINTS (automatic)
1 1 10 0 0 0
CELL_PARAMETERS cubic
10.000000   0.0000000   0.000000
 0.000000  30.0000000   0.000000
 0.000000   0.0000000   13.010000
