 &bands
       prefix='C_2Z_1A_W9',
       outdir='/home/zfwang/scratch/GNRDATASET/AGNR/C_2Z_1A_W9',
       filband='bands_C_2Z_1A_W9.dat',
       lsym=.true.,
 /
