 &control
    calculation='relax'
    pseudo_dir = '/home/zfwang/hp_home/MySoftware/qe-6.3/pseudo'
    outdir='/home/zfwang/scratch/GNRDATASET/AGNR/C_2Z_3A_W9',
    prefix='C_2Z_3A_W9',
    tstress = .true.
    tprnfor = .true.
    etot_conv_thr = 1.0D-4,
    forc_conv_thr = 1.0D-3,
    wf_collect = .true.,
 /
 &system
    ibrav = 0,
    celldm(1) = 1.8897261249935,
    nat = 84,
    ntyp = 2,
    ecutwfc =40.d0
    ecutrho =480.d0
    occupations='smearing', smearing='marzari-vanderbilt', degauss=0.01
	nosym=.true
 /
 &electrons
    conv_thr = 1.0D-5
    mixing_beta = 0.7
 /
  &IONS
    ion_dynamics = 'bfgs'
	upscale = 1.0D4
	
 /
ATOMIC_SPECIES
C  12.0107  C.pbe-n-rrkjus_psl.0.1.UPF
H  1.00794  H.pbe-rrkjus_psl.0.1.UPF
ATOMIC_POSITIONS (Angstrom)
C	5.0000000000	9.5735102892	3.7783260481	
C	5.0000000000	10.1818495989	7.9946602387	
C	5.0000000000	10.7901898026	12.2110116214	
C	5.0000000000	11.3984996080	16.4273455554	
C	5.0000000000	10.6892699003	2.8999857551	
C	5.0000000000	11.2976101041	7.1163371378	
C	5.0000000000	11.9059503078	11.3326705586	
C	5.0000000000	12.5142896175	15.5490055190	
C	5.0000000000	12.0078000426	3.4271070422	
C	5.0000000000	12.6161402464	7.6434412328	
C	5.0000000000	13.2244795561	11.8597751669	
C	5.0000000000	13.8328197598	16.0761265496	
C	5.0000000000	9.7762799263	5.1837709494	
C	5.0000000000	10.3846201301	9.4001048834	
C	5.0000000000	10.9929603338	13.6164562661	
C	5.0000000000	10.4865002632	1.4945426500	
C	5.0000000000	11.0948395729	5.7108750444	
C	5.0000000000	11.7031502724	9.9272259139	
C	5.0000000000	12.3114895821	14.1435598480	
C	5.0000000000	13.1235900521	2.5487664926	
C	5.0000000000	13.7318998575	6.7651006832	
C	5.0000000000	14.3402400613	10.9814515527	
C	5.0000000000	14.9485802650	15.1977854867	
C	5.0000000000	14.4421201944	3.0758708443	
C	5.0000000000	15.0504595041	7.2922222270	
C	5.0000000000	15.6588006020	11.5085561610	
C	5.0000000000	16.2671095133	15.7249075437	
C	5.0000000000	11.6022598743	0.6162073606	
C	5.0000000000	12.2106000781	4.8325519435	
C	5.0000000000	12.8189402819	9.0488858775	
C	5.0000000000	13.4272500873	13.2652372602	
C	5.0000000000	12.9207900167	1.1433201800	
C	5.0000000000	13.5291302204	5.3596560385	
C	5.0000000000	14.1374704242	9.5760069080	
C	5.0000000000	14.7458097339	13.7923408421	
C	5.0000000000	15.5578798056	2.1975474867	
C	5.0000000000	16.1662191153	6.4138816773	
C	5.0000000000	16.7745602131	10.6302325468	
C	5.0000000000	17.3828995228	14.8465664809	
C	5.0000000000	16.8764108419	2.7246515818	
C	5.0000000000	17.4847501516	6.9410027079	
C	5.0000000000	18.0930894613	11.1573371551	
C	5.0000000000	18.7014305592	15.3736710891	
C	5.0000000000	14.0365496278	0.2649847945	
C	5.0000000000	14.6448898315	4.4813324244	
C	5.0000000000	15.2532291412	8.6976668716	
C	5.0000000000	15.8615702391	12.9140008057	
C	5.0000000000	15.3551101685	0.7920975818	
C	5.0000000000	15.9634494781	5.0084370327	
C	5.0000000000	16.5717601776	9.2247704535	
C	5.0000000000	17.1800994873	13.4411218362	
C	5.0000000000	17.9922008514	1.8463283525	
C	5.0000000000	18.6005097628	6.0626621583	
C	5.0000000000	19.2088508606	10.2789960923	
C	5.0000000000	19.8171901703	14.4953474750	
C	5.0000000000	19.3107300997	2.3734325759	
C	5.0000000000	16.4708697796	17.1337619025	
C	5.0000000000	17.0792108774	4.1300962265	
C	5.0000000000	17.6875501871	8.3464473525	
C	5.0000000000	18.2958608866	12.5627817998	
C	5.0000000000	18.9042001963	16.7791331825	
C	5.0000000000	17.7894008160	0.4408750477	
C	5.0000000000	18.3977401257	4.6572175136	
C	5.0000000000	19.0060794353	8.8735514476	
C	5.0000000000	19.6144205332	13.0899028303	
C	5.0000000000	20.2227598429	0.0862723483	
C	5.0000000000	20.4264897108	1.4950988261	
C	5.0000000000	19.5134997368	3.7788772206	
H	5.0000000000	8.5614001751	3.3737077184	
H	5.0000000000	9.1697099805	7.5900416525	
H	5.0000000000	9.7780501842	11.8063935483	
H	5.0000000000	10.3862696886	16.0230538750	
H	5.0000000000	8.9198103547	5.8579852355	
H	5.0000000000	9.5281496644	10.0743191695	
H	5.0000000000	10.1364898682	14.2906705522	
H	5.0000000000	9.4743597507	1.0899277844	
H	5.0000000000	19.6126502752	6.4672807445	
H	5.0000000000	20.2209895849	10.6836151917	
H	5.0000000000	20.8293002844	14.8999491258	
H	5.0000000000	19.8625499010	8.1993371615	
H	5.0000000000	20.4708892107	12.4156885442	
H	5.0000000000	21.0792303085	16.6320224782	
H	5.0000000000	21.4385998249	1.8997103559	
H	5.0000000000	20.5256402493	4.1834955502	
K_POINTS (automatic)
1 1 10 0 0 0
CELL_PARAMETERS cubic
10.000000   0.0000000   0.000000
 0.000000  30.0000000   0.000000
 0.000000   0.0000000   17.220000
