 &control
    calculation='nscf'
    pseudo_dir = '/home/zfwang/hp_home/MySoftware/qe-6.3/pseudo',
    outdir='/home/zfwang/scratch/GNRDATASET/AGNR/C_2Z_2A_W7'
    prefix='C_2Z_2A_W7'
    wf_collect = .true.
 /
 &system
    ibrav = 0,
    celldm(1) = 1.8897261249935,
    nat = 52,
    ntyp = 2,
    ecutwfc=40.0,
    ecutrho=480.d0,
    nbnd=500,nosym=.true.,
    occupations='smearing', smearing='marzari-vanderbilt', degauss=0.01
 /
 &electrons
    conv_thr = 1.0D-5
    mixing_beta = 0.7
 /
ATOMIC_SPECIES
C  12.0107  C.pbe-n-rrkjus_psl.0.1.UPF
H  1.00794  H.pbe-rrkjus_psl.0.1.UPF
ATOMIC_POSITIONS (Angstrom)
C	5.0000000000	10.8404400945	3.7158120177	
C	5.0000000000	11.6452503204	7.8990994216	
C	5.0000000000	12.4500596523	12.0823744182	
C	5.0000000000	11.9139003754	2.7862607486	
C	5.0000000000	12.7187097073	6.9695481525	
C	5.0000000000	13.5235503316	11.1528355564	
C	5.0000000000	13.2556504011	3.2511470796	
C	5.0000000000	14.0604597330	7.4344342896	
C	5.0000000000	14.8653003573	11.6177216935	
C	5.0000000000	11.1087003350	5.1102370166	
C	5.0000000000	11.9135096669	9.2935244204	
C	5.0000000000	11.6456401348	1.3918358467	
C	5.0000000000	12.4504503608	5.5751235414	
C	5.0000000000	13.2552596927	9.7584105575	
C	5.0000000000	14.3291401863	2.3216086055	
C	5.0000000000	15.1339495182	6.5048830205	
C	5.0000000000	15.9387606382	10.6881704244	
C	5.0000000000	15.6708598137	2.7864817537	
C	5.0000000000	16.4756995440	6.9697691576	
C	5.0000000000	17.2805106640	11.1530565615	
C	5.0000000000	12.7191004157	0.4622921383	
C	5.0000000000	13.5239097476	4.6455718846	
C	5.0000000000	14.3287503719	8.8288592884	
C	5.0000000000	14.0608504415	0.9271758521	
C	5.0000000000	14.8656597733	5.1104580217	
C	5.0000000000	15.6705003977	9.2937454255	
C	5.0000000000	16.7443495989	1.8569432797	
C	5.0000000000	17.5491607189	6.0402306836	
C	5.0000000000	18.3539700508	10.2235184751	
C	5.0000000000	18.0860996246	2.3218296106	
C	5.0000000000	15.1343393326	13.0076314592	
C	5.0000000000	15.9391504526	4.1809195476	
C	5.0000000000	16.7439597845	8.3641941565	
C	5.0000000000	17.5487691164	12.5474815603	
C	5.0000000000	16.4760893583	0.4625145974	
C	5.0000000000	17.2809004784	4.6458060724	
C	5.0000000000	18.0857098103	8.8290802935	
C	5.0000000000	18.8905191422	0.0023418785	
C	5.0000000000	19.1595607996	1.3922781477	
C	5.0000000000	18.3543598652	3.7162544156	
H	5.0000000000	9.8105102777	3.3589609213	
H	5.0000000000	10.6153196096	7.5422483251	
H	5.0000000000	11.4197400212	11.7267066682	
H	5.0000000000	10.2846899629	5.8237573650	
H	5.0000000000	11.0895296931	10.0070451566	
H	5.0000000000	10.6157103181	1.0349897907	
H	5.0000000000	18.5790896416	6.3970689850	
H	5.0000000000	19.3839007616	10.5803563889	
H	5.0000000000	18.9097201824	8.1155603329	
H	5.0000000000	19.7145295143	12.2988477367	
H	5.0000000000	20.1894897223	1.7491294380	
H	5.0000000000	19.3842905760	4.0731058998	
K_POINTS (automatic)
1 1 50 0 0 0
CELL_PARAMETERS cubic
10.000000   0.0000000   0.000000
 0.000000  30.0000000   0.000000
 0.000000   0.0000000   13.010000
