 &control
    calculation='relax'
    pseudo_dir = '/home/zfwang/hp_home/MySoftware/qe-6.3/pseudo'
    outdir='/home/zfwang/scratch/GNRDATASET/AGNR/C_2Z_1A_W7',
    prefix='C_2Z_1A_W7',
    tstress = .true.
    tprnfor = .true.
    etot_conv_thr = 1.0D-4,
    forc_conv_thr = 1.0D-3,
    wf_collect = .true.,
 /
 &system
    ibrav = 0,
    celldm(1) = 1.8897261249935,
    nat = 36,
    ntyp = 2,
    ecutwfc =40.d0
    ecutrho =480.d0
    occupations='smearing', smearing='marzari-vanderbilt', degauss=0.01
	nosym=.true
 /
 &electrons
    conv_thr = 1.0D-5
    mixing_beta = 0.7
 /
  &IONS
    ion_dynamics = 'bfgs'
	upscale = 1.0D4
	
 /
ATOMIC_SPECIES
C  12.0107  C.pbe-n-rrkjus_psl.0.1.UPF
H  1.00794  H.pbe-rrkjus_psl.0.1.UPF
ATOMIC_POSITIONS (Angstrom)
C	5.0000000000	10.9631100297	4.2642523963	
C	5.0000000000	12.1444800496	8.3571717185	
C	5.0000000000	11.9477400184	3.2410624160	
C	5.0000000000	13.1291100383	7.3339822669	
C	5.0000000000	13.3261495829	3.5821937680	
C	5.0000000000	14.5075196028	7.6751130902	
C	5.0000000000	11.3568896055	5.6285560174	
C	5.0000000000	11.5539604425	1.8767589272	
C	5.0000000000	12.7353295684	5.9696783816	
C	5.0000000000	14.3107795715	2.5590037877	
C	5.0000000000	15.4921495914	6.6519231099	
C	5.0000000000	15.6892204285	2.9001351397	
C	5.0000000000	16.8705600500	6.9930544619	
C	5.0000000000	12.5385904312	0.8535778025	
C	5.0000000000	13.7199595571	4.9464973890	
C	5.0000000000	13.9169999957	1.1947002988	
C	5.0000000000	15.0983691216	5.2876197532	
C	5.0000000000	16.6738504171	1.8769451594	
C	5.0000000000	17.8551900387	5.9698644816	
C	5.0000000000	18.0522608757	2.2180765113	
C	5.0000000000	14.9016299844	0.1715191907	
C	5.0000000000	16.0829991102	4.2644387607	
C	5.0000000000	17.2643691301	8.3573583472	
C	5.0000000000	16.2800395489	0.5126425296	
C	5.0000000000	17.4614095688	4.6055611249	
C	5.0000000000	18.6427795887	8.6984807114	
C	5.0000000000	19.0368908644	1.1948865310	
C	5.0000000000	18.4460395575	3.5823801324	
H	5.0000000000	9.9050402641	4.0024012320	
H	5.0000000000	11.0863798857	8.0953205542	
H	5.0000000000	10.6011003256	6.4139588327	
H	5.0000000000	10.4958897829	1.6149076307	
H	5.0000000000	18.9132893085	6.2317161745	
H	5.0000000000	19.3985706568	7.9130778961	
H	5.0000000000	20.0949597359	1.4567378275	
H	5.0000000000	19.5041102171	3.8442312967	
K_POINTS (automatic)
1 1 10 0 0 0
CELL_PARAMETERS cubic
10.000000   0.0000000   0.000000
 0.000000  30.0000000   0.000000
 0.000000   0.0000000   8.870000
