 &control
    calculation='nscf'
    pseudo_dir = '/home/zfwang/hp_home/MySoftware/qe-6.3/pseudo',
    outdir='/home/zfwang/scratch/GNRDATASET/AGNR/C_2Z_1A_W9'
    prefix='C_2Z_1A_W9'
    wf_collect = .true.
 /
 &system
    ibrav = 0,
    celldm(1) = 1.8897261249935,
    nat = 44,
    ntyp = 2,
    ecutwfc=40.0,
    ecutrho=480.d0,
    nbnd=500,nosym=.true.,
    occupations='smearing', smearing='marzari-vanderbilt', degauss=0.01
 /
 &electrons
    conv_thr = 1.0D-5
    mixing_beta = 0.7
 /
ATOMIC_SPECIES
C  12.0107  C.pbe-n-rrkjus_psl.0.1.UPF
H  1.00794  H.pbe-rrkjus_psl.0.1.UPF
ATOMIC_POSITIONS (Angstrom)
C	5.0000000000	9.7816202044	4.7759362069	
C	5.0000000000	10.9629598260	8.8688557935	
C	5.0000000000	10.7662501931	3.7527549501	
C	5.0000000000	11.9475898147	7.8456748010	
C	5.0000000000	12.1446597576	4.0938775786	
C	5.0000000000	13.3260297775	8.1867971651	
C	5.0000000000	10.1753997803	6.1402395636	
C	5.0000000000	10.3724697232	2.3884426056	
C	5.0000000000	11.5538102388	6.4813619278	
C	5.0000000000	13.1292897463	3.0706963217	
C	5.0000000000	14.3106597662	7.1636161726	
C	5.0000000000	14.5077002048	3.4118189503	
C	5.0000000000	15.6890702248	7.5047385368	
C	5.0000000000	11.3570997119	1.3652614809	
C	5.0000000000	12.5384402275	5.4581809353	
C	5.0000000000	12.7355101705	1.7063839773	
C	5.0000000000	13.9168801904	5.7993032995	
C	5.0000000000	15.4923301935	2.3886376934	
C	5.0000000000	16.6737002134	6.4815570156	
C	5.0000000000	16.8707692623	2.7297603219	
C	5.0000000000	18.0521106720	6.8226799085	
C	5.0000000000	13.7201401591	0.6832046369	
C	5.0000000000	14.9015101790	4.7761223070	
C	5.0000000000	15.0985497236	1.0243253489	
C	5.0000000000	16.2799197435	5.1172446711	
C	5.0000000000	17.8553992510	1.7065790651	
C	5.0000000000	19.0367406607	5.7994983873	
C	5.0000000000	19.2338097095	2.0477015614	
C	5.0000000000	16.0831797123	0.0011458621	
C	5.0000000000	17.2645497322	4.0940636786	
C	5.0000000000	18.4458893538	8.1869832652	
C	5.0000000000	17.4615901709	0.3422693310	
C	5.0000000000	18.6429601908	4.4351860428	
C	5.0000000000	19.8243302107	8.5281056293	
C	5.0000000000	20.2184396982	1.0245204367	
C	5.0000000000	19.6275901794	3.4120050503	
H	5.0000000000	8.7235200405	4.5140850426	
H	5.0000000000	9.9049499631	8.6068090127	
H	5.0000000000	9.4195801020	6.9256429077	
H	5.0000000000	9.3143695593	2.1266001648	
H	5.0000000000	20.0948399305	6.0613410925	
H	5.0000000000	20.5801194906	7.7427118018	
H	5.0000000000	21.2764799595	1.2865668210	
H	5.0000000000	20.6856608391	3.6738564789	
K_POINTS (automatic)
1 1 50 0 0 0
CELL_PARAMETERS cubic
10.000000   0.0000000   0.000000
 0.000000  30.0000000   0.000000
 0.000000   0.0000000   8.870000
