 &control
    calculation='relax'
    pseudo_dir = '/home/zfwang/hp_home/MySoftware/qe-6.3/pseudo'
    outdir='/home/zfwang/scratch/GNRDATASET/AGNR/C_2Z_3A_W7',
    prefix='C_2Z_3A_W7',
    tstress = .true.
    tprnfor = .true.
    etot_conv_thr = 1.0D-4,
    forc_conv_thr = 1.0D-3,
    wf_collect = .true.,
 /
 &system
    ibrav = 0,
    celldm(1) = 1.8897261249935,
    nat = 68,
    ntyp = 2,
    ecutwfc =40.d0
    ecutrho =480.d0
    occupations='smearing', smearing='marzari-vanderbilt', degauss=0.01
	nosym=.true
 /
 &electrons
    conv_thr = 1.0D-5
    mixing_beta = 0.7
 /
  &IONS
    ion_dynamics = 'bfgs'
	upscale = 1.0D4
	
 /
ATOMIC_SPECIES
C  12.0107  C.pbe-n-rrkjus_psl.0.1.UPF
H  1.00794  H.pbe-rrkjus_psl.0.1.UPF
ATOMIC_POSITIONS (Angstrom)
C	5.0000000000	10.7906699181	3.4271070422	
C	5.0000000000	11.3990101218	7.6434412328	
C	5.0000000000	12.0073199272	11.8597751669	
C	5.0000000000	12.6156601310	16.0761265496	
C	5.0000000000	11.9064304233	2.5487664926	
C	5.0000000000	12.5147697330	6.7651006832	
C	5.0000000000	13.1230804324	10.9814515527	
C	5.0000000000	13.7314197421	15.1977854867	
C	5.0000000000	13.2249596715	3.0758708443	
C	5.0000000000	13.8332998753	7.2922222270	
C	5.0000000000	14.4416400790	11.5085561610	
C	5.0000000000	15.0499802828	15.7249075437	
C	5.0000000000	10.9934395552	4.8325519435	
C	5.0000000000	11.6017797589	9.0488858775	
C	5.0000000000	12.2101199627	13.2652372602	
C	5.0000000000	11.7036598921	1.1433201800	
C	5.0000000000	12.3119696975	5.3596560385	
C	5.0000000000	12.9203099012	9.5760069080	
C	5.0000000000	13.5286501050	13.7923408421	
C	5.0000000000	14.3407201767	2.1975474867	
C	5.0000000000	14.9490603805	6.4138816773	
C	5.0000000000	15.5574005842	10.6302325468	
C	5.0000000000	16.1657398939	14.8465664809	
C	5.0000000000	15.6592798233	2.7246515818	
C	5.0000000000	16.2676191330	6.9410027079	
C	5.0000000000	16.8759298325	11.1573371551	
C	5.0000000000	17.4842691422	15.3736710891	
C	5.0000000000	12.8194203973	0.2649847945	
C	5.0000000000	13.4277302027	4.4813324244	
C	5.0000000000	14.0360704064	8.6976668716	
C	5.0000000000	14.6444097161	12.9140008057	
C	5.0000000000	14.1379496455	0.7920975818	
C	5.0000000000	14.7462898493	5.0084370327	
C	5.0000000000	15.3546291590	9.2247704535	
C	5.0000000000	15.9629702568	13.4411218362	
C	5.0000000000	16.7750394344	1.8463283525	
C	5.0000000000	17.3833805323	6.0626621583	
C	5.0000000000	17.9916894436	10.2789960923	
C	5.0000000000	18.6000305414	14.4953474750	
C	5.0000000000	18.0935704708	2.3734325759	
C	5.0000000000	15.2537101507	17.1337619025	
C	5.0000000000	15.8620494604	4.1300962265	
C	5.0000000000	16.4703905582	8.3464473525	
C	5.0000000000	17.0787298679	12.5627817998	
C	5.0000000000	17.6870405674	16.7791331825	
C	5.0000000000	16.5722697973	0.4408750477	
C	5.0000000000	17.1805804968	4.6572175136	
C	5.0000000000	17.7889198065	8.8735514476	
C	5.0000000000	18.3972591162	13.0899028303	
C	5.0000000000	19.0056002140	0.0862723483	
C	5.0000000000	19.2093300819	1.4950988261	
C	5.0000000000	18.2963401079	3.7788772206	
H	5.0000000000	9.7785302997	3.0224887125	
H	5.0000000000	10.3868696094	7.2388226466	
H	5.0000000000	10.9952098131	11.4551745425	
H	5.0000000000	11.6033998132	15.6718348691	
H	5.0000000000	10.1369699836	5.5067662296	
H	5.0000000000	10.7453101873	9.7231001637	
H	5.0000000000	11.3536503911	13.9394515464	
H	5.0000000000	10.6915202737	0.7387052503	
H	5.0000000000	18.3954906464	6.4672807445	
H	5.0000000000	19.0038299561	10.6836151917	
H	5.0000000000	19.6121692657	14.8999491258	
H	5.0000000000	18.6453902721	8.1993371615	
H	5.0000000000	19.2537295818	12.4156885442	
H	5.0000000000	19.8620706797	16.6320224782	
H	5.0000000000	20.2214705944	1.8997103559	
H	5.0000000000	19.3084806204	4.1834955502	
K_POINTS (automatic)
1 1 10 0 0 0
CELL_PARAMETERS cubic
10.000000   0.0000000   0.000000
 0.000000  30.0000000   0.000000
 0.000000   0.0000000   17.220000
