 &control
    calculation='nscf'
    pseudo_dir = '/home/zfwang/hp_home/MySoftware/qe-6.3/pseudo',
    outdir='/home/zfwang/scratch/GNRDATASET/AGNR/C_3Z_1A_W9'
    prefix='C_3Z_1A_W9'
    wf_collect = .true.
 /
 &system
    ibrav = 0,
    celldm(1) = 1.8897261249935,
    nat = 56,
    ntyp = 2,
    ecutwfc=40.0,
    ecutrho=480.d0,
    nbnd=500,nosym=.true.,
    occupations='smearing', smearing='marzari-vanderbilt', degauss=0.01
 /
 &electrons
    conv_thr = 1.0D-5
    mixing_beta = 0.7
 /
ATOMIC_SPECIES
C  12.0107  C.pbe-n-rrkjus_psl.0.1.UPF
H  1.00794  H.pbe-rrkjus_psl.0.1.UPF
ATOMIC_POSITIONS (Angstrom)
C	5.0000000000	10.1198700070	8.7212901219	
C	5.0000000000	10.1196303964	4.9643225850	
C	5.0000000000	11.5143004060	8.9895606420	
C	5.0000000000	9.6549904346	7.3795398485	
C	5.0000000000	11.0496300459	0.1347895391	
C	5.0000000000	11.0491803288	3.8908438394	
C	5.0000000000	12.4438199401	7.9160822323	
C	5.0000000000	12.4436098337	4.1591146954	
C	5.0000000000	13.8382503390	8.1843534241	
C	5.0000000000	10.5845099688	6.3060614388	
C	5.0000000000	11.9791799784	10.3313109154	
C	5.0000000000	10.5842998624	2.5490937340	
C	5.0000000000	11.9789403677	6.5743433786	
C	5.0000000000	13.3736103773	10.5995821073	
C	5.0000000000	13.3731597662	3.0856473695	
C	5.0000000000	14.7678002715	7.1108857623	
C	5.0000000000	14.7675901651	3.3539182255	
C	5.0000000000	16.1622297764	7.3791569542	
C	5.0000000000	11.5138497949	1.4756262401	
C	5.0000000000	12.9084903002	5.5008646329	
C	5.0000000000	14.3031299114	9.5261030258	
C	5.0000000000	12.9082801938	1.7438972641	
C	5.0000000000	14.3029198050	5.7691354890	
C	5.0000000000	15.6975603104	9.7943742177	
C	5.0000000000	15.6971400976	2.2804394799	
C	5.0000000000	17.0917797089	6.3056778727	
C	5.0000000000	18.4864193201	10.3309166014	
C	5.0000000000	17.0915704966	2.5487106718	
C	5.0000000000	18.4862101078	6.5739490646	
C	5.0000000000	19.8808497190	10.5991877933	
C	5.0000000000	13.8378301263	0.6704230107	
C	5.0000000000	15.2324706316	4.6956570792	
C	5.0000000000	16.6271102428	8.7209065558	
C	5.0000000000	15.2322292328	0.9386952522	
C	5.0000000000	16.6268992424	4.9639393549	
C	5.0000000000	18.0215406418	8.9891777477	
C	5.0000000000	18.0210900307	1.4752430099	
C	5.0000000000	19.4157600403	5.5004814028	
C	5.0000000000	19.4155204296	1.7435142018	
C	5.0000000000	16.1617791653	11.1352213937	
C	5.0000000000	17.5564491749	3.8904606093	
C	5.0000000000	18.9510905743	7.9156986662	
C	5.0000000000	17.5562095642	0.1334931564	
C	5.0000000000	18.9508795738	4.1587314653	
C	5.0000000000	20.3450703621	0.6700375974	
C	5.0000000000	19.8803991079	3.0852527197	
H	5.0000000000	9.4063496590	9.5452961060	
H	5.0000000000	9.0492600203	4.7583969961	
H	5.0000000000	8.5846200585	7.1736145954	
H	5.0000000000	9.9792900681	11.1985940308	
H	5.0000000000	9.5139303803	2.3431683130	
H	5.0000000000	20.5943691730	9.7751925571	
H	5.0000000000	20.4861295223	5.7064066558	
H	5.0000000000	20.0214600563	8.1216245910	
H	5.0000000000	21.4153808355	0.8762177355	
H	5.0000000000	20.9507703781	3.2911893924	
K_POINTS (automatic)
1 1 50 0 0 0
CELL_PARAMETERS cubic
10.000000   0.0000000   0.000000
 0.000000  30.0000000   0.000000
 0.000000   0.0000000   11.270000
