 &control
    calculation='relax'
    pseudo_dir = '/home/zfwang/hp_home/MySoftware/qe-6.3/pseudo'
    outdir='/home/zfwang/scratch/GNRDATASET/AGNR/C_3Z_1A_W7',
    prefix='C_3Z_1A_W7',
    tstress = .true.
    tprnfor = .true.
    etot_conv_thr = 1.0D-4,
    forc_conv_thr = 1.0D-3,
    wf_collect = .true.,
 /
 &system
    ibrav = 0,
    celldm(1) = 1.8897261249935,
    nat = 46,
    ntyp = 2,
    ecutwfc =40.d0
    ecutrho =480.d0
    occupations='smearing', smearing='marzari-vanderbilt', degauss=0.01
	nosym=.true
 /
 &electrons
    conv_thr = 1.0D-5
    mixing_beta = 0.7
 /
  &IONS
    ion_dynamics = 'bfgs'
	upscale = 1.0D4
	
 /
ATOMIC_SPECIES
C  12.0107  C.pbe-n-rrkjus_psl.0.1.UPF
H  1.00794  H.pbe-rrkjus_psl.0.1.UPF
ATOMIC_POSITIONS (Angstrom)
C	5.0000000000	11.2818297744	8.3186801314	
C	5.0000000000	11.2815901637	4.5617243501	
C	5.0000000000	12.6762601733	8.5869627429	
C	5.0000000000	10.8169502020	6.9769419494	
C	5.0000000000	12.2115898132	11.0021800064	
C	5.0000000000	12.2111400962	3.4882456045	
C	5.0000000000	13.6057797074	7.5134836614	
C	5.0000000000	13.6055696011	3.7565164605	
C	5.0000000000	15.0002092123	7.7817548533	
C	5.0000000000	11.7464697361	5.9034628679	
C	5.0000000000	13.1411397457	9.9287015966	
C	5.0000000000	11.7462596297	2.1464954990	
C	5.0000000000	13.1409001350	6.1717340598	
C	5.0000000000	14.5355701447	10.1969721168	
C	5.0000000000	14.5351204276	2.6830377149	
C	5.0000000000	15.9297591448	6.7082764436	
C	5.0000000000	17.3244291544	10.7335259202	
C	5.0000000000	15.9295499325	2.9513199905	
C	5.0000000000	17.3241895437	6.9765583834	
C	5.0000000000	18.7188595533	11.0017971121	
C	5.0000000000	12.6758095622	1.0730234709	
C	5.0000000000	14.0704500675	5.0982663980	
C	5.0000000000	15.4651200771	9.1235051267	
C	5.0000000000	14.0702399611	1.3412991131	
C	5.0000000000	15.4648804665	5.3665375899	
C	5.0000000000	16.8595200777	9.3917763186	
C	5.0000000000	16.8590998650	1.8778412449	
C	5.0000000000	18.2537394762	5.9030799736	
C	5.0000000000	18.2535302639	2.1461124368	
C	5.0000000000	14.9997898936	0.2678214170	
C	5.0000000000	16.3944303989	4.2930588442	
C	5.0000000000	17.7890700102	8.3182972371	
C	5.0000000000	16.3942193985	0.5360936165	
C	5.0000000000	17.7888607979	4.5613297003	
C	5.0000000000	19.1830497980	1.0726380575	
C	5.0000000000	18.7184107304	3.4878623743	
H	5.0000000000	10.5683103204	9.1426861155	
H	5.0000000000	10.2112197876	4.3557876774	
H	5.0000000000	9.7465798259	6.7710160246	
H	5.0000000000	11.1412203312	10.7962547533	
H	5.0000000000	10.6758901477	1.9405700780	
H	5.0000000000	19.4323807955	10.1777911279	
H	5.0000000000	19.3241107464	6.1090052267	
H	5.0000000000	18.8594394922	8.5242224901	
H	5.0000000000	20.2534192801	1.2785702799	
H	5.0000000000	19.7887802124	3.6937876273	
K_POINTS (automatic)
1 1 10 0 0 0
CELL_PARAMETERS cubic
10.000000   0.0000000   0.000000
 0.000000  30.0000000   0.000000
 0.000000   0.0000000   11.270000
