 &bands
       prefix='C_3Z_2A_W9',
       outdir='/home/zfwang/scratch/GNRDATASET/AGNR/C_3Z_2A_W9',
       filband='bands_C_3Z_2A_W9.dat',
       lsym=.true.,
 /
