 &control
    calculation='relax'
    pseudo_dir = '/home/zfwang/hp_home/MySoftware/qe-6.3/pseudo'
    outdir='/home/zfwang/scratch/GNRDATASET/AGNR/C_3Z_2A_W7',
    prefix='C_3Z_2A_W7',
    tstress = .true.
    tprnfor = .true.
    etot_conv_thr = 1.0D-4,
    forc_conv_thr = 1.0D-3,
    wf_collect = .true.,
 /
 &system
    ibrav = 0,
    celldm(1) = 1.8897261249935,
    nat = 62,
    ntyp = 2,
    ecutwfc =40.d0
    ecutrho =480.d0
    occupations='smearing', smearing='marzari-vanderbilt', degauss=0.01
	nosym=.true
 /
 &electrons
    conv_thr = 1.0D-5
    mixing_beta = 0.7
 /
  &IONS
    ion_dynamics = 'bfgs'
	upscale = 1.0D4
	
 /
ATOMIC_SPECIES
C  12.0107  C.pbe-n-rrkjus_psl.0.1.UPF
H  1.00794  H.pbe-rrkjus_psl.0.1.UPF
ATOMIC_POSITIONS (Angstrom)
C	5.0000000000	10.9072798491	7.7786881806	
C	5.0000000000	11.9306400418	11.9139374168	
C	5.0000000000	11.2482002378	4.0372223524	
C	5.0000000000	12.2715899348	8.1724720463	
C	5.0000000000	13.2949501276	12.3077377620	
C	5.0000000000	10.5661502481	6.4002812290	
C	5.0000000000	11.5895104408	10.5355313807	
C	5.0000000000	12.6129001379	14.6707815324	
C	5.0000000000	12.2713798285	3.0526001820	
C	5.0000000000	13.2947704196	7.1878498760	
C	5.0000000000	14.3181297183	11.3231000277	
C	5.0000000000	13.6356899142	3.4463845055	
C	5.0000000000	14.6590796113	7.5816341994	
C	5.0000000000	15.6824398041	11.7168838934	
C	5.0000000000	11.5893298388	5.4156439524	
C	5.0000000000	12.6126900315	9.5508936464	
C	5.0000000000	13.6360797286	13.6861437981	
C	5.0000000000	11.9302502275	1.6741784675	
C	5.0000000000	12.9536399245	5.8094282759	
C	5.0000000000	13.9770001173	9.9446784276	
C	5.0000000000	15.0003898144	14.0799276638	
C	5.0000000000	14.6588703990	2.4617472289	
C	5.0000000000	15.6822592020	6.5969969229	
C	5.0000000000	16.7056202888	10.7322617230	
C	5.0000000000	17.7289795876	14.8675118747	
C	5.0000000000	16.0231804848	2.8555315524	
C	5.0000000000	17.0465397835	6.9907968103	
C	5.0000000000	18.0699294806	11.1260465042	
C	5.0000000000	19.0932905674	15.2612966560	
C	5.0000000000	12.9534602165	0.6895488013	
C	5.0000000000	13.9768204093	4.8248061055	
C	5.0000000000	15.0001806021	8.9600562572	
C	5.0000000000	16.0235702991	13.0953054934	
C	5.0000000000	14.3177399039	1.0833346697	
C	5.0000000000	15.3411304951	5.2185904290	
C	5.0000000000	16.3644897938	9.3538401230	
C	5.0000000000	17.3878794909	13.4890902747	
C	5.0000000000	17.0463591814	1.8709093820	
C	5.0000000000	18.0697506666	6.0061590760	
C	5.0000000000	18.4106701612	2.2646937055	
C	5.0000000000	15.3409194946	0.0987042810	
C	5.0000000000	16.3643091917	4.2339531524	
C	5.0000000000	17.3876702785	8.3692033041	
C	5.0000000000	18.4110599756	12.5044681043	
C	5.0000000000	16.7052304745	0.4924907574	
C	5.0000000000	17.7286201715	4.6277374759	
C	5.0000000000	19.4338506460	1.2800639820	
C	5.0000000000	18.7518006563	3.6431155344	
H	5.0000000000	10.1218798757	8.5345072555	
H	5.0000000000	11.1452400684	12.6697574072	
H	5.0000000000	10.2009603381	3.7349527669	
H	5.0000000000	9.5189103484	6.0979965373	
H	5.0000000000	10.5422696471	10.2332462312	
H	5.0000000000	11.5657800436	14.3680358727	
H	5.0000000000	10.8830103278	1.3719060210	
H	5.0000000000	18.8553303480	10.3702420778	
H	5.0000000000	19.8786896467	14.5054922295	
H	5.0000000000	19.1169905663	6.3084286615	
H	5.0000000000	18.4349405766	8.6714875381	
H	5.0000000000	19.4582998753	12.8067376898	
H	5.0000000000	20.4810905457	1.5823411206	
H	5.0000000000	19.7990405560	3.9453848911	
K_POINTS (automatic)
1 1 10 0 0 0
CELL_PARAMETERS cubic
10.000000   0.0000000   0.000000
 0.000000  30.0000000   0.000000
 0.000000   0.0000000   15.360000
