 &control
    calculation='nscf'
    pseudo_dir = '/home/zfwang/hp_home/MySoftware/qe-6.3/pseudo',
    outdir='/home/zfwang/scratch/GNRDATASET/AGNR/C_3Z_2A_W9'
    prefix='C_3Z_2A_W9'
    wf_collect = .true.
 /
 &system
    ibrav = 0,
    celldm(1) = 1.8897261249935,
    nat = 76,
    ntyp = 2,
    ecutwfc=40.0,
    ecutrho=480.d0,
    nbnd=500,nosym=.true.,
    occupations='smearing', smearing='marzari-vanderbilt', degauss=0.01
 /
 &electrons
    conv_thr = 1.0D-5
    mixing_beta = 0.7
 /
ATOMIC_SPECIES
C  12.0107  C.pbe-n-rrkjus_psl.0.1.UPF
H  1.00794  H.pbe-rrkjus_psl.0.1.UPF
ATOMIC_POSITIONS (Angstrom)
C	5.0000000000	9.7135198116	8.3693717612	
C	5.0000000000	10.7369104028	12.5046219129	
C	5.0000000000	10.0544697046	4.6279063907	
C	5.0000000000	11.0778298974	8.7631565424	
C	5.0000000000	12.1011900902	12.8984057786	
C	5.0000000000	9.3723902106	6.9909501611	
C	5.0000000000	10.3957799077	11.1262003128	
C	5.0000000000	11.4191401005	15.2614651130	
C	5.0000000000	11.0776501894	3.6432691141	
C	5.0000000000	12.1010103822	7.7785343720	
C	5.0000000000	13.1244000793	11.9137836082	
C	5.0000000000	12.4419602752	4.0370685438	
C	5.0000000000	13.4653195739	8.1723182377	
C	5.0000000000	14.4886797667	12.3075683895	
C	5.0000000000	10.3955698013	6.0063279907	
C	5.0000000000	11.4189603925	10.1415781425	
C	5.0000000000	12.4423196912	14.2768282942	
C	5.0000000000	10.7365196943	2.2648626203	
C	5.0000000000	11.7598798871	6.4001123142	
C	5.0000000000	12.7832695842	10.5353620082	
C	5.0000000000	13.8066297770	14.6706121599	
C	5.0000000000	13.4651398659	3.0524312672	
C	5.0000000000	14.4885000587	7.1876809612	
C	5.0000000000	15.5118602514	11.3229306551	
C	5.0000000000	14.8294499516	3.4462155907	
C	5.0000000000	15.8528101444	7.5814652846	
C	5.0000000000	16.8761694431	11.7167310003	
C	5.0000000000	11.7597001791	1.2802283192	
C	5.0000000000	12.7830603719	5.4154750376	
C	5.0000000000	13.8064500690	9.5507251894	
C	5.0000000000	14.8298102617	13.6859899895	
C	5.0000000000	13.1240102649	1.6740095527	
C	5.0000000000	14.1473695636	5.8092749251	
C	5.0000000000	15.1707601547	9.9445246190	
C	5.0000000000	16.1941194534	14.0797747707	
C	5.0000000000	15.8526295424	2.4615936492	
C	5.0000000000	16.8759906292	6.5968435720	
C	5.0000000000	17.8993499279	10.7320932660	
C	5.0000000000	18.9227396250	14.8673434177	
C	5.0000000000	17.2169405222	2.8553777438	
C	5.0000000000	18.2402998209	6.9906278955	
C	5.0000000000	19.2636591196	11.1258771317	
C	5.0000000000	20.2870506048	15.2611272834	
C	5.0000000000	14.1471898556	0.6893844069	
C	5.0000000000	15.1705491543	4.8246371907	
C	5.0000000000	16.1939406395	8.9598868847	
C	5.0000000000	17.2172999382	13.0951370364	
C	5.0000000000	15.5115008354	1.0831718203	
C	5.0000000000	16.5348601341	5.2184215142	
C	5.0000000000	17.5582498312	9.3536716659	
C	5.0000000000	18.5816091299	13.4889209021	
C	5.0000000000	18.2401192188	1.8707404672	
C	5.0000000000	19.2634803057	6.0059901612	
C	5.0000000000	19.6044301987	2.2645247907	
C	5.0000000000	16.5346795321	0.0985406949	
C	5.0000000000	17.5580406189	4.2337998016	
C	5.0000000000	18.5814303160	8.3690494956	
C	5.0000000000	19.6047896147	12.5042996473	
C	5.0000000000	17.8989905119	0.4923279080	
C	5.0000000000	18.9223498106	4.6275841251	
C	5.0000000000	20.6276106834	1.2799011326	
C	5.0000000000	19.9455302954	3.6429463907	
H	5.0000000000	8.9281198382	9.1251761876	
H	5.0000000000	9.9515104294	13.2604263393	
H	5.0000000000	9.0072003007	4.3256368052	
H	5.0000000000	8.3251503110	6.6886810334	
H	5.0000000000	9.3485096097	10.8239307273	
H	5.0000000000	10.3719002008	14.9591808790	
H	5.0000000000	9.6892797947	1.9625932636	
H	5.0000000000	20.0490599871	10.3700736207	
H	5.0000000000	21.0724496841	14.5053228569	
H	5.0000000000	20.3107202053	6.3082748529	
H	5.0000000000	19.6286702156	8.6713190811	
H	5.0000000000	20.6520295143	12.8065683173	
H	5.0000000000	21.6748505831	1.5821720914	
H	5.0000000000	20.9928005934	3.9452159763	
K_POINTS (automatic)
1 1 50 0 0 0
CELL_PARAMETERS cubic
10.000000   0.0000000   0.000000
 0.000000  30.0000000   0.000000
 0.000000   0.0000000   15.360000
